! XTB2 OPT NUMFREQ
%PAL NPROCS 8 END
%maxcore 2658

! ALPB(Acetonitrile)

*xyzfile 4 1 trenK_input.xyz
