! XTB2 OPT NUMFREQ
%PAL NPROCS 8 END
%maxcore 2658

! ALPB(Acetonitrile)

*xyzfile 0 1 trencage_input.xyz
