! XTB2 OPT NUMFREQ
%PAL NPROCS 8 END
%maxcore 2658

! ALPB(Acetonitrile)

*xyzfile 12 1 trenHMg_input.xyz
