
                                 *****************
                                 * O   R   C   A *
                                 *****************

                                            #,                                       
                                            ###                                      
                                            ####                                     
                                            #####                                    
                                            ######                                   
                                           ########,                                 
                                     ,,################,,,,,                         
                               ,,#################################,,                 
                          ,,##########################################,,             
                       ,#########################################, ''#####,          
                    ,#############################################,,   '####,        
                  ,##################################################,,,,####,       
                ,###########''''           ''''###############################       
              ,#####''   ,,,,##########,,,,          '''####'''          '####       
            ,##' ,,,,###########################,,,                        '##       
           ' ,,###''''                  '''############,,,                           
         ,,##''                                '''############,,,,        ,,,,,,###''
      ,#''                                            '''#######################'''  
     '                                                          ''''####''''         
             ,#######,   #######,   ,#######,      ##                                
            ,#'     '#,  ##    ##  ,#'     '#,    #''#        ######   ,####,        
            ##       ##  ##   ,#'  ##            #'  '#       #        #'  '#        
            ##       ##  #######   ##           ,######,      #####,   #    #        
            '#,     ,#'  ##    ##  '#,     ,#' ,#      #,         ##   #,  ,#        
             '#######'   ##     ##  '#######'  #'      '#     #####' # '####'        



                  #######################################################
                  #                        -***-                        #
                  #          Department of theory and spectroscopy      #
                  #    Directorship and core code : Frank Neese         #
                  #        Max Planck Institute fuer Kohlenforschung    #
                  #                Kaiser Wilhelm Platz 1               #
                  #                 D-45470 Muelheim/Ruhr               #
                  #                      Germany                        #
                  #                                                     #
                  #                  All rights reserved                #
                  #                        -***-                        #
                  #######################################################


                         Program Version 5.0.4 -  RELEASE  -


 With contributions from (in alphabetic order):
   Daniel Aravena         : Magnetic Suceptibility
   Michael Atanasov       : Ab Initio Ligand Field Theory (pilot matlab implementation)
   Alexander A. Auer      : GIAO ZORA, VPT2 properties, NMR spectrum
   Ute Becker             : Parallelization
   Giovanni Bistoni       : ED, misc. LED, open-shell LED, HFLD
   Martin Brehm           : Molecular dynamics
   Dmytro Bykov           : SCF Hessian
   Vijay G. Chilkuri      : MRCI spin determinant printing, contributions to CSF-ICE
   Dipayan Datta          : RHF DLPNO-CCSD density
   Achintya Kumar Dutta   : EOM-CC, STEOM-CC
   Dmitry Ganyushin       : Spin-Orbit,Spin-Spin,Magnetic field MRCI
   Miquel Garcia          : C-PCM and meta-GGA Hessian, CC/C-PCM, Gaussian charge scheme
   Yang Guo               : DLPNO-NEVPT2, F12-NEVPT2, CIM, IAO-localization
   Andreas Hansen         : Spin unrestricted coupled pair/coupled cluster methods
   Benjamin Helmich-Paris : MC-RPA, TRAH-SCF, COSX integrals
   Lee Huntington         : MR-EOM, pCC
   Robert Izsak           : Overlap fitted RIJCOSX, COSX-SCS-MP3, EOM
   Marcus Kettner         : VPT2
   Christian Kollmar      : KDIIS, OOCD, Brueckner-CCSD(T), CCSD density, CASPT2, CASPT2-K
   Simone Kossmann        : Meta GGA functionals, TD-DFT gradient, OOMP2, MP2 Hessian
   Martin Krupicka        : Initial AUTO-CI
   Lucas Lang             : DCDCAS
   Marvin Lechner         : AUTO-CI (C++ implementation), FIC-MRCC
   Dagmar Lenk            : GEPOL surface, SMD
   Dimitrios Liakos       : Extrapolation schemes; Compound Job, initial MDCI parallelization
   Dimitrios Manganas     : Further ROCIS development; embedding schemes
   Dimitrios Pantazis     : SARC Basis sets
   Anastasios Papadopoulos: AUTO-CI, single reference methods and gradients
   Taras Petrenko         : DFT Hessian,TD-DFT gradient, ASA, ECA, R-Raman, ABS, FL, XAS/XES, NRVS
   Peter Pinski           : DLPNO-MP2, DLPNO-MP2 Gradient
   Christoph Reimann      : Effective Core Potentials
   Marius Retegan         : Local ZFS, SOC
   Christoph Riplinger    : Optimizer, TS searches, QM/MM, DLPNO-CCSD(T), (RO)-DLPNO pert. Triples
   Tobias Risthaus        : Range-separated hybrids, TD-DFT gradient, RPA, STAB
   Michael Roemelt        : Original ROCIS implementation
   Masaaki Saitow         : Open-shell DLPNO-CCSD energy and density
   Barbara Sandhoefer     : DKH picture change effects
   Avijit Sen             : IP-ROCIS
   Kantharuban Sivalingam : CASSCF convergence, NEVPT2, FIC-MRCI
   Bernardo de Souza      : ESD, SOC TD-DFT
   Georgi Stoychev        : AutoAux, RI-MP2 NMR, DLPNO-MP2 response
   Willem Van den Heuvel  : Paramagnetic NMR
   Boris Wezisla          : Elementary symmetry handling
   Frank Wennmohs         : Technical directorship


 We gratefully acknowledge several colleagues who have allowed us to
 interface, adapt or use parts of their codes:
   Stefan Grimme, W. Hujo, H. Kruse, P. Pracht,  : VdW corrections, initial TS optimization,
                  C. Bannwarth, S. Ehlert          DFT functionals, gCP, sTDA/sTD-DF
   Ed Valeev, F. Pavosevic, A. Kumar             : LibInt (2-el integral package), F12 methods
   Garnet Chan, S. Sharma, J. Yang, R. Olivares  : DMRG
   Ulf Ekstrom                                   : XCFun DFT Library
   Mihaly Kallay                                 : mrcc  (arbitrary order and MRCC methods)
   Jiri Pittner, Ondrej Demel                    : Mk-CCSD
   Frank Weinhold                                : gennbo (NPA and NBO analysis)
   Christopher J. Cramer and Donald G. Truhlar   : smd solvation model
   Lars Goerigk                                  : TD-DFT with DH, B97 family of functionals
   V. Asgeirsson, H. Jonsson                     : NEB implementation
   FAccTs GmbH                                   : IRC, NEB, NEB-TS, DLPNO-Multilevel, CI-OPT
                                                   MM, QMMM, 2- and 3-layer-ONIOM, Crystal-QMMM,
                                                   LR-CPCM, SF, NACMEs, symmetry and pop. for TD-DFT,
                                                   nearIR, NL-DFT gradient (VV10), updates on ESD,
                                                   ML-optimized integration grids
   S Lehtola, MJT Oliveira, MAL Marques          : LibXC Library
   Liviu Ungur et al                             : ANISO software


 Your calculation uses the libint2 library for the computation of 2-el integrals
 For citations please refer to: http://libint.valeyev.net

 Your ORCA version has been built with support for libXC version: 5.1.0
 For citations please refer to: https://tddft.org/programs/libxc/

 This ORCA versions uses:
   CBLAS   interface :  Fast vector & matrix operations
   LAPACKE interface :  Fast linear algebra routines
   SCALAPACK package :  Parallel linear algebra routines
   Shared memory     :  Shared parallel matrices
   BLAS/LAPACK       :  OpenBLAS 0.3.15  USE64BITINT DYNAMIC_ARCH NO_AFFINITY SkylakeX SINGLE_THREADED
        Core in use  :  SkylakeX
   Copyright (c) 2011-2014, The OpenBLAS Project




***************************************
The coordinates will be read from file: xtbopt.xyz
***************************************


Your calculation utilizes the geometrical counterpoise correction gCP
Please cite in your paper:
H.Kruse, S. Grimme J.Chem.Phys., 136, (2012), 154101 
   

Your calculation utilizes the atom-pairwise dispersion correction
based on tight binding partial charges (D4)
Cite in your paper:
E.Caldeweyher, C.Bannwarth, S.Grimme, J.Chem.Phys., (2017), 147, 034112.
E.Caldeweyher, S.Ehlert, A.Hansen, H.Neugebauer, S.Grimme, J.Chem.Phys., (2018), in progress.
   

Your calculation utilizes the SMD solvation module
Please cite in your paper:
A.V. Marenich, C.J. Cramer, D.G. Truhlar J. Phys. Chem. B, 113, (2009), 6378 

================================================================================

----- Orbital basis set information -----
Your calculation utilizes the basis: def2-mTZVPP
   Stefan Grimme, Andreas Hansen, Sebastian Ehlert, and Jan-Michael Mewes 
   J. Chem. Phys. 154, 000000 (2021). DOI: 10.1063/5.0040021

----- AuxJ basis set information -----
Your calculation utilizes the auxiliary basis: def2/J
   F. Weigend, Phys. Chem. Chem. Phys. 8, 1057 (2006).

================================================================================
                                        WARNINGS
                       Please study these warnings very carefully!
================================================================================

Using LibXC functional ID 497 : Re-regularized SCAN exchange by Furness et al
[ 1]  J. W. Furness, A. D. Kaplan, J. Ning, J. P. Perdew, and J. Sun, J. Phys. Chem. Lett. 11, 8208 (2020)
[ 2]  J. W. Furness, A. D. Kaplan, J. Ning, J. P. Perdew, and J. Sun, J. Phys. Chem. Lett. 11, 9248 (2020)
Using LibXC functional ID 498 : Re-regularized SCAN correlation by Furness et al
[ 1]  J. W. Furness, A. D. Kaplan, J. Ning, J. P. Perdew, and J. Sun, J. Phys. Chem. Lett. 11, 8208 (2020)
[ 2]  J. W. Furness, A. D. Kaplan, J. Ning, J. P. Perdew, and J. Sun, J. Phys. Chem. Lett. 11, 9248 (2020)
Using LibXC functional ID 497 : Re-regularized SCAN exchange by Furness et al
[ 1]  J. W. Furness, A. D. Kaplan, J. Ning, J. P. Perdew, and J. Sun, J. Phys. Chem. Lett. 11, 8208 (2020)
[ 2]  J. W. Furness, A. D. Kaplan, J. Ning, J. P. Perdew, and J. Sun, J. Phys. Chem. Lett. 11, 9248 (2020)
Using LibXC functional ID 498 : Re-regularized SCAN correlation by Furness et al
[ 1]  J. W. Furness, A. D. Kaplan, J. Ning, J. P. Perdew, and J. Sun, J. Phys. Chem. Lett. 11, 8208 (2020)
[ 2]  J. W. Furness, A. D. Kaplan, J. Ning, J. P. Perdew, and J. Sun, J. Phys. Chem. Lett. 11, 9248 (2020)

INFO   : the flag for use of the SHARK integral package has been found!

================================================================================
                                       INPUT FILE
================================================================================
NAME = ORCA.in
|  1> ! r2SCAN-3c ENERGY TightSCF defgrid3 def2/J
|  2> %maxcore 8000
|  3> %PAL NPROCS 8 END
|  4> %CPCM SMD TRUE
|  5>       SMDSOLVENT "MeCN"
|  6> END
|  7> *xyzfile 0 1  xtbopt.xyz
|  8> 
|  9>                          ****END OF INPUT****
================================================================================

                       ****************************
                       * Single Point Calculation *
                       ****************************

---------------------------------
CARTESIAN COORDINATES (ANGSTROEM)
---------------------------------
  C      1.805458   -2.407787    1.201532
  C      1.822209   -2.703830   -0.191443
  N      1.837216   -2.945189   -1.312111
  H      0.881602   -1.885379    1.448532
  H      2.659640   -1.774077    1.446185
  H      1.870926   -3.335873    1.770632
  C     -1.858546   -1.930941   -1.101144
  C     -1.418461   -0.854022   -0.280010
  N     -1.061538    0.011082    0.382382
  H     -1.467295   -2.870058   -0.708606
  H     -1.497710   -1.780262   -2.117476
  H     -2.948508   -1.967462   -1.102872
  C      1.574643    0.200459    4.066931
  C      0.363999   -0.539489    3.936718
  N     -0.610890   -1.136556    3.844693
  H      1.841448    0.274361    5.120385
  H      1.447494    1.200687    3.653833
  H      2.376960   -0.301117    3.526214
  C      0.931396    2.493102   -0.441473
  C      1.876417    2.096683   -1.433778
  N      2.634650    1.777183   -2.231476
  H      0.242261    1.669493   -0.249013
  H      0.374260    3.358198   -0.800623
  H      1.452383    2.753378    0.479479
  C     -0.878182   -4.332863    3.074099
  C     -1.151642   -4.560795    1.696993
  N     -1.366807   -4.743255    0.584980
  H      0.105446   -4.740147    3.312575
  H     -1.640071   -4.818576    3.681639
  H     -0.881647   -3.259942    3.275334
  C      0.495515   -2.833213   -4.333532
  C     -0.326770   -1.674128   -4.442834
  N     -1.006139   -0.752568   -4.514570
  H     -0.142661   -3.718697   -4.364872
  H      1.032674   -2.805073   -3.384331
  H      1.206466   -2.861765   -5.156945
  C      6.384432    0.309305    0.801177
  C      5.238678   -0.138880    1.522263
  N      4.320030   -0.503860    2.102747
  H      6.403330   -0.168463   -0.177606
  H      7.287465    0.052464    1.353121
  H      6.333152    1.391366    0.670419
  C     -6.628112   -2.288263    0.803198
  C     -5.819935   -2.314597   -0.368558
  N     -5.163730   -2.326904   -1.309282
  H     -7.667538   -2.479588    0.542292
  H     -6.538323   -1.303848    1.267224
  H     -6.276716   -3.045607    1.504192
  C     -5.597530    2.870605    0.565041
  C     -5.718198    1.661482    1.308081
  N     -5.810637    0.688658    1.908613
  H     -4.835686    3.496861    1.031955
  H     -6.551433    3.394920    0.554622
  H     -5.291592    2.638190   -0.456351
  C     -3.418790   -5.172828   -2.030175
  C     -2.549936   -5.163850   -3.162118
  N     -1.842135   -5.162198   -4.063757
  H     -4.045797   -4.281264   -2.040224
  H     -2.820717   -5.175085   -1.118276
  H     -4.047706   -6.061257   -2.056082
  C     -1.142241    2.514416    2.654074
  C     -2.093384    3.462321    2.180988
  N     -2.865054    4.221123    1.800831
  H     -0.150232    2.966856    2.658181
  H     -1.143239    1.644095    1.996640
  H     -1.407398    2.206367    3.664314
  C      0.681263   -5.985824   -1.724642
  C      1.502714   -7.011440   -1.171019
  N      2.164595   -7.828470   -0.714091
  H     -0.097877   -5.724647   -1.007349
  H      0.225732   -6.324423   -2.653300
  H      1.286147   -5.098537   -1.912369
  C      3.918680    5.164443    2.655308
  C      2.841886    4.235503    2.738734
  N      1.974858    3.487987    2.800990
  H      4.819560    4.643842    2.331179
  H      4.085989    5.623193    3.628400
  H      3.665809    5.935745    1.924523
  C     -4.053566   -1.366564    4.099087
  C     -4.545268   -2.680487    3.833105
  N     -4.948405   -3.730447    3.611196
  H     -2.971796   -1.343774    3.966022
  H     -4.300249   -1.085294    5.121851
  H     -4.520386   -0.664532    3.406893
  C      3.964844    3.079802   -4.864650
  C      4.358611    4.334512   -4.314125
  N      4.672714    5.340514   -3.862153
  H      4.836572    2.561967   -5.261491
  H      3.236979    3.238985   -5.658861
  H      3.511563    2.480992   -4.071285
  C      3.472579   -7.495658    2.271014
  C      2.797462   -6.295500    2.642756
  N      2.250269   -5.332203    2.937052
  H      3.243245   -8.282856    2.987646
  H      4.547019   -7.320066    2.248836
  H      3.131545   -7.794645    1.277304
  C      2.264790    7.160644   -2.175525
  C      2.781229    7.180923   -0.848351
  N      3.212099    7.191140    0.214631
  H      2.976920    6.649910   -2.825615
  H      2.112997    8.179666   -2.527478
  H      1.314751    6.624211   -2.185898
  C     -4.137132   -0.100578   -3.705409
  C     -4.257938    1.144782   -3.024232
  N     -4.363151    2.142289   -2.468343
  H     -4.480183   -0.901182   -3.049311
  H     -3.092388   -0.268247   -3.974057
  H     -4.743966   -0.084139   -4.609334
  C     -3.043814    5.019630   -1.389407
  C     -1.699285    5.294918   -1.772147
  N     -0.612855    5.517821   -2.064378
  H     -3.383041    4.100072   -1.867485
  H     -3.686699    5.846149   -1.686985
  H     -3.080617    4.895762   -0.305702
  C      6.226280    5.826143   -0.949249
  C      6.328471    4.571188   -0.279082
  N      6.409988    3.568020    0.269442
  H      5.830000    5.668298   -1.953941
  H      7.208402    6.291789   -1.011438
  H      5.543717    6.473785   -0.398879

----------------------------
CARTESIAN COORDINATES (A.U.)
----------------------------
  NO LB      ZA    FRAG     MASS         X           Y           Z
   0 C     6.0000    0    12.011    3.411821   -4.550058    2.270567
   1 C     6.0000    0    12.011    3.443476   -5.109497   -0.361775
   2 N     7.0000    0    14.007    3.471834   -5.565600   -2.479531
   3 H     1.0000    0     1.008    1.665987   -3.562851    2.737329
   4 H     1.0000    0     1.008    5.025992   -3.352519    2.732893
   5 H     1.0000    0     1.008    3.535537   -6.303886    3.346009
   6 C     6.0000    0    12.011   -3.512143   -3.648949   -2.080860
   7 C     6.0000    0    12.011   -2.680502   -1.613868   -0.529143
   8 N     7.0000    0    14.007   -2.006016    0.020942    0.722598
   9 H     1.0000    0     1.008   -2.772786   -5.423624   -1.339071
  10 H     1.0000    0     1.008   -2.830262   -3.364208   -4.001449
  11 H     1.0000    0     1.008   -5.571874   -3.717965   -2.084126
  12 C     6.0000    0    12.011    2.975644    0.378812    7.685385
  13 C     6.0000    0    12.011    0.687858   -1.019486    7.439318
  14 N     7.0000    0    14.007   -1.154415   -2.147779    7.265416
  15 H     1.0000    0     1.008    3.479832    0.518467    9.676126
  16 H     1.0000    0     1.008    2.735367    2.268969    6.904744
  17 H     1.0000    0     1.008    4.491803   -0.569029    6.663578
  18 C     6.0000    0    12.011    1.760084    4.711280   -0.834262
  19 C     6.0000    0    12.011    3.545914    3.962157   -2.709447
  20 N     7.0000    0    14.007    4.978766    3.358389   -4.216879
  21 H     1.0000    0     1.008    0.457807    3.154885   -0.470566
  22 H     1.0000    0     1.008    0.707249    6.346075   -1.512959
  23 H     1.0000    0     1.008    2.744607    5.203131    0.906084
  24 C     6.0000    0    12.011   -1.659523   -8.187925    5.809205
  25 C     6.0000    0    12.011   -2.176289   -8.618653    3.206851
  26 N     7.0000    0    14.007   -2.582891   -8.963453    1.105453
  27 H     1.0000    0     1.008    0.199263   -8.957579    6.259860
  28 H     1.0000    0     1.008   -3.099284   -9.105789    6.957290
  29 H     1.0000    0     1.008   -1.666071   -6.160398    6.189483
  30 C     6.0000    0    12.011    0.936389   -5.353996   -8.189190
  31 C     6.0000    0    12.011   -0.617506   -3.163644   -8.395739
  32 N     7.0000    0    14.007   -1.901328   -1.422147   -8.531302
  33 H     1.0000    0     1.008   -0.269590   -7.027319   -8.248413
  34 H     1.0000    0     1.008    1.951471   -5.300820   -6.395459
  35 H     1.0000    0     1.008    2.279891   -5.407952   -9.745213
  36 C     6.0000    0    12.011   12.064829    0.584502    1.514006
  37 C     6.0000    0    12.011    9.899666   -0.262445    2.876660
  38 N     7.0000    0    14.007    8.163673   -0.952158    3.973615
  39 H     1.0000    0     1.008   12.100539   -0.318349   -0.335627
  40 H     1.0000    0     1.008   13.771313    0.099143    2.557027
  41 H     1.0000    0     1.008   11.967923    2.629301    1.266909
  42 C     6.0000    0    12.011  -12.525317   -4.324191    1.517825
  43 C     6.0000    0    12.011  -10.998084   -4.373954   -0.696474
  44 N     7.0000    0    14.007   -9.758036   -4.397211   -2.474184
  45 H     1.0000    0     1.008  -14.489546   -4.685743    1.024783
  46 H     1.0000    0     1.008  -12.355639   -2.463916    2.394706
  47 H     1.0000    0     1.008  -11.861275   -5.755363    2.842511
  48 C     6.0000    0    12.011  -10.577799    5.424657    1.067773
  49 C     6.0000    0    12.011  -10.805829    3.139745    2.471916
  50 N     7.0000    0    14.007  -10.980513    1.301375    3.606756
  51 H     1.0000    0     1.008   -9.138122    6.608110    1.950113
  52 H     1.0000    0     1.008  -12.380414    6.415469    1.048084
  53 H     1.0000    0     1.008   -9.999659    4.985456   -0.862379
  54 C     6.0000    0    12.011   -6.460576   -9.775228   -3.836474
  55 C     6.0000    0    12.011   -4.818680   -9.758262   -5.975538
  56 N     7.0000    0    14.007   -3.481131   -9.755140   -7.679387
  57 H     1.0000    0     1.008   -7.645448   -8.090416   -3.855464
  58 H     1.0000    0     1.008   -5.330384   -9.779493   -2.113236
  59 H     1.0000    0     1.008   -7.649056  -11.454116   -3.885432
  60 C     6.0000    0    12.011   -2.158523    4.751558    5.015472
  61 C     6.0000    0    12.011   -3.955922    6.542838    4.121470
  62 N     7.0000    0    14.007   -5.414167    7.976767    3.403078
  63 H     1.0000    0     1.008   -0.283897    5.606545    5.023233
  64 H     1.0000    0     1.008   -2.160409    3.106889    3.773102
  65 H     1.0000    0     1.008   -2.659598    4.169429    6.924550
  66 C     6.0000    0    12.011    1.287401  -11.311568   -3.259101
  67 C     6.0000    0    12.011    2.839717  -13.249702   -2.212906
  68 N     7.0000    0    14.007    4.090492  -14.793664   -1.349436
  69 H     1.0000    0     1.008   -0.184960  -10.818015   -1.903614
  70 H     1.0000    0     1.008    0.426572  -11.951428   -5.014010
  71 H     1.0000    0     1.008    2.430466   -9.634838   -3.613854
  72 C     6.0000    0    12.011    7.405231    9.759384    5.017805
  73 C     6.0000    0    12.011    5.370386    8.003941    5.175457
  74 N     7.0000    0    14.007    3.731941    6.591340    5.293103
  75 H     1.0000    0     1.008    9.107649    8.775590    4.405290
  76 H     1.0000    0     1.008    7.721400   10.626294    6.856682
  77 H     1.0000    0     1.008    6.927374   11.216933    3.636821
  78 C     6.0000    0    12.011   -7.660130   -2.582432    7.746151
  79 C     6.0000    0    12.011   -8.589312   -5.065387    7.243519
  80 N     7.0000    0    14.007   -9.351130   -7.049523    6.824171
  81 H     1.0000    0     1.008   -5.615880   -2.539364    7.494695
  82 H     1.0000    0     1.008   -8.126293   -2.050908    9.678895
  83 H     1.0000    0     1.008   -8.542292   -1.255784    6.438094
  84 C     6.0000    0    12.011    7.492469    5.819982   -9.192857
  85 C     6.0000    0    12.011    8.236582    8.191041   -8.152514
  86 N     7.0000    0    14.007    8.830150   10.092109   -7.298412
  87 H     1.0000    0     1.008    9.139797    4.841415   -9.942778
  88 H     1.0000    0     1.008    6.117004    6.120794  -10.693697
  89 H     1.0000    0     1.008    6.635892    4.688395   -7.693615
  90 C     6.0000    0    12.011    6.562223  -14.164741    4.291594
  91 C     6.0000    0    12.011    5.286436  -11.896771    4.994086
  92 N     7.0000    0    14.007    4.252393  -10.076404    5.550223
  93 H     1.0000    0     1.008    6.128844  -15.652329    5.645832
  94 H     1.0000    0     1.008    8.592621  -13.832919    4.249685
  95 H     1.0000    0     1.008    5.917763  -14.729744    2.413756
  96 C     6.0000    0    12.011    4.279832   13.531656   -4.111146
  97 C     6.0000    0    12.011    5.255761   13.569977   -1.603152
  98 N     7.0000    0    14.007    6.069987   13.589285    0.405594
  99 H     1.0000    0     1.008    5.625563   12.566508   -5.339639
 100 H     1.0000    0     1.008    3.992986   15.457329   -4.776242
 101 H     1.0000    0     1.008    2.484519   12.517944   -4.130748
 102 C     6.0000    0    12.011   -7.818046   -0.190065   -7.002209
 103 C     6.0000    0    12.011   -8.046337    2.163324   -5.714970
 104 N     7.0000    0    14.007   -8.245160    4.048340   -4.664493
 105 H     1.0000    0     1.008   -8.466319   -1.702988   -5.762363
 106 H     1.0000    0     1.008   -5.843767   -0.506913   -7.509880
 107 H     1.0000    0     1.008   -8.964797   -0.159000   -8.710379
 108 C     6.0000    0    12.011   -5.751975    9.485726   -2.625599
 109 C     6.0000    0    12.011   -3.211183   10.005945   -3.348873
 110 N     7.0000    0    14.007   -1.158129   10.427171   -3.901108
 111 H     1.0000    0     1.008   -6.393021    7.748012   -3.529036
 112 H     1.0000    0     1.008   -6.966851   11.047620   -3.187939
 113 H     1.0000    0     1.008   -5.821523    9.251649   -0.577693
 114 C     6.0000    0    12.011   11.765964   11.009814   -1.793820
 115 C     6.0000    0    12.011   11.959077    8.638294   -0.527389
 116 N     7.0000    0    14.007   12.113122    6.742581    0.509172
 117 H     1.0000    0     1.008   11.017103   10.711532   -3.692414
 118 H     1.0000    0     1.008   13.621906   11.889758   -1.911340
 119 H     1.0000    0     1.008   10.476106   12.233681   -0.753772

--------------------------------
INTERNAL COORDINATES (ANGSTROEM)
--------------------------------
 C      0   0   0     0.000000000000     0.00000000     0.00000000
 C      1   0   0     1.424185034476     0.00000000     0.00000000
 N      2   1   0     1.146462339746   179.82655654     0.00000000
 H      1   2   3     1.089691289158   109.34941851   217.44025301
 H      1   2   3     1.091362162346   109.31453678    97.53238468
 H      1   2   3     1.090643999262   109.43726548   337.88413305
 C      4   1   2     3.743172107389   117.41297144    13.99976458
 C      7   4   1     1.423969311665    51.08004312   221.09529809
 N      8   7   4     1.146544182656   179.82557894     4.34309839
 H      7   4   1     1.090460943080    60.17404824    58.14244066
 H      7   4   1     1.088961311361   113.04613785   317.93011368
 H      7   4   1     1.090575558410   137.14813935   144.80930036
 C      4   1   2     3.418630804952   107.11218820   210.61030045
 C     13   4   1     1.424828884438    56.00599379   219.06962121
 N     14  13   4     1.146893929207   179.35670420   145.36113588
 H     13   4   1     1.089225756725   146.28622055   292.22823625
 H     13   4   1     1.089620041569   104.24393409   114.26408946
 H     13   4   1     1.089800793819    59.23042341    10.76425289
 C      9   8   7     3.288000591607   127.84336780    95.47755402
 C     19   9   8     1.426492560225   111.47317911   329.00071766
 N     20  19   9     1.146001956776   179.92486041    27.89740550
 H     19   9   8     1.090999292836     4.49482115    31.60556694
 H     19   9   8     1.089853974701   111.83381077    91.65965472
 H     19   9   8     1.089643466449   104.97168870   210.27061064
 C      6   1   2     3.201657324272   115.20637556   256.31552799
 C     25   6   1     1.422376464138    79.67778951    70.02625117
 N     26  25   6     1.147239594296   179.71436007     6.36835608
 H     25   6   1     1.090996738867    55.32588458   191.88673232
 H     25   6   1     1.088805193211   165.22227936   199.92324495
 H     25   6   1     1.091634961669    76.80391244   316.89539697
 C     11   7   4     3.161101174309   144.79848175    55.57198938
 C     31  11   7     1.425333898030    54.48731770   184.79166095
 N     32  31  11     1.147154345575   178.67855560   331.18353564
 H     31  11   7     1.091940406301    85.51019726    68.01791092
 H     31  11   7     1.091015293043    72.05773449   315.85788251
 H     31  11   7     1.088243615116   162.01065055   217.18244390
 C      5   1   2     4.316316621848   157.24782761   351.52564733
 C     37   5   1     1.426039182028    22.98526033   181.23539090
 N     38  37   5     1.146335905720   179.73335069    80.24717330
 H     37   5   1     1.089328586040    86.41918177   355.73109680
 H     37   5   1     1.089071440164   121.73408114   244.69454269
 H     37   5   1     1.091138315190   117.13003320   105.44340532
 C     12   7   4     4.156380666264   152.45534503   355.14577997
 C     43  12   7     1.423677027135    28.53022603   194.78897522
 N     44  43  12     1.147047032619   179.46146197   315.55257958
 H     43  12   7     1.088615209312   138.49897667   194.63085641
 H     43  12   7     1.091996142906    93.00928143    69.78294687
 H     43  12   7     1.090156083342    93.62018380   320.45617173
 C     47  43  12     4.336381958828   144.77066007    48.26013121
 C     49  47  43     1.424306408588    23.06274107   207.19623342
 N     50  49  47     1.146982896287   179.73626521   136.73150267
 H     49  47  43     1.091152033264   129.39735909   237.70118769
 H     49  47  43     1.088552236573   105.96853585   103.91467682
 H     49  47  43     1.091264151039    90.42161814   353.11923859
 C     10   7   4     3.295091127086   104.18108369   174.40197366
 C     55  10   7     1.426984559790    87.31463176    86.38714185
 N     56  55  10     1.146270493660   179.31739397    68.39847624
 H     55  10   7     1.090011670381    76.86520644   335.39846832
 H     55  10   7     1.090529349763    48.79695188   205.03047782
 H     55  10   7     1.088812619690   157.20044780   225.98390457
 C     17  13   4     3.071177862711   127.91421629    66.04488252
 C     61  17  13     1.423729144082   163.00011557   170.46148557
 N     62  61  17     1.147072600346   179.63390711   189.86703356
 H     61  17  13     1.090321649380    53.77712431   180.42366983
 H     61  17  13     1.090724808570    81.70101149   302.12648909
 H     61  17  13     1.088938990194    77.42699396    54.30992557
 C      3   2   1     3.279004294442   108.27546235    48.06433639
 C     67   3   2     1.425891923040   114.52263305   293.95158119
 N     68  67   3     1.146476092006   179.29513355    45.48049993
 H     67   3   2     1.090771052319    86.96448075    43.66316623
 H     67   3   2     1.088376288111   122.91440221   155.20801448
 H     67   3   2     1.090139859811    21.76760932   212.95794906
 C     24  19   9     4.077999899316   151.80421062   188.43902357
 C     73  24  19     1.424561163752    35.76382651   153.66273312
 N     74  73  24     1.146469817824   179.75486273   350.75022875
 H     73  24  19     1.089803244391    93.37180732   272.68265693
 H     73  24  19     1.088738356796   144.97881752   140.01851315
 H     73  24  19     1.092198289631    85.44059074    21.74870504
 C     15  14  13     3.459716999141   150.99159572    77.31319540
 C     79  15  14     1.427904335261   112.96283783   183.85190522
 N     80  79  15     1.146376367081   179.35925479   231.02210727
 H     79  15  14     1.090161950492     3.81850292   150.23924068
 H     79  15  14     1.089041750522   106.09808688   303.88518457
 H     79  15  14     1.090826340777   109.65753143    61.97756232
 C     21  20  19     3.224878038304   136.77346323   112.83638136
 C     85  21  20     1.425632753116    98.86577354    49.02652594
 N     86  85  21     1.146725054729   179.49756662     7.21552451
 H     85  21  20     1.088828028202   115.83142654   166.14143170
 H     85  21  20     1.088988677912   112.26212664   293.36527492
 H     85  21  20     1.092458540936     9.76124347   218.48366052
 C     69  68  67     3.276039948208   121.41664876   358.62459920
 C     91  69  68     1.426308157780    97.70005306     7.28390517
 N     92  91  69     1.146285216525   179.67302507    21.41927111
 H     91  69  68     1.088960459784   116.23945825   123.76203566
 H     91  69  68     1.088919783327   113.06482348   252.01849144
 H     91  69  68     1.092316643287    11.06911692   178.73655282
 C     87  86  85     3.457699947750   117.60071042   300.83878264
 C     97  87  86     1.424257548378   102.09419640   116.15856002
 N     98  97  87     1.147033437062   179.14154220    11.53118675
 H     97  87  86     1.091144710650     7.47130681   273.63928717
 H     97  87  86     1.088723426075   115.60109507   235.26928602
 H     97  87  86     1.091073902812   110.05562211     0.10350147
 C     33  32  31     3.298930638965   134.87036744   346.16256111
 C    103  33  32     1.424611828495   111.74845074   134.47455568
 N    104 103  33     1.146779181170   179.39765204   220.98304638
 H    103  33  32     1.090465937027   107.52077548    14.76344914
 H    103  33  32     1.091683370638     2.56482517   161.33663072
 H    103  33  32     1.088851735978   109.16600968   255.95348524
 C     63  62  61     3.293507126362   121.19278067   252.55086412
 C    109  63  62     1.424792138108   104.82283823   311.73457269
 N    110 109  63     1.146914517346   179.17855946   343.54036543
 H    109  63  62     1.090514074789   103.71507946    66.89999942
 H    109  63  62     1.088571190735   118.74630515   188.84853598
 H    109  63  62     1.091381909304     9.06214871   195.27138493
 C     87  86  85     3.336827023748   126.81784922    38.89688098
 C    115  87  86     1.426351140493   108.38887088   354.44834311
 N    116 115  87     1.146241252325   179.43411538   210.95793573
 H    115  87  86     1.091494300486     6.47789565    94.02301038
 H    115  87  86     1.088695704752   115.61919098   118.16241901
 H    115  87  86     1.090064538835   103.63219570   238.41655568

---------------------------
INTERNAL COORDINATES (A.U.)
---------------------------
 C      0   0   0     0.000000000000     0.00000000     0.00000000
 C      1   0   0     2.691319679188     0.00000000     0.00000000
 N      2   1   0     2.166499844975   179.82655654     0.00000000
 H      1   2   3     2.059218107028   109.34941851   217.44025301
 H      1   2   3     2.062375599758   109.31453678    97.53238468
 H      1   2   3     2.061018468209   109.43726548   337.88413305
 C      4   1   2     7.073570155097   117.41297144    13.99976458
 C      7   4   1     2.690912022156    51.08004312   221.09529809
 N      8   7   4     2.166654505661   179.82557894     4.34309839
 H      7   4   1     2.060672542159    60.17404824    58.14244066
 H      7   4   1     2.057838648909   113.04613785   317.93011368
 H      7   4   1     2.060889133743   137.14813935   144.80930036
 C      4   1   2     6.460275974346   107.11218820   210.61030045
 C     13   4   1     2.692536379288    56.00599379   219.06962121
 N     14  13   4     2.167315430858   179.35670420   145.36113588
 H     13   4   1     2.058338378224   146.28622055   292.22823625
 H     13   4   1     2.059083468598   104.24393409   114.26408946
 H     13   4   1     2.059425040848    59.23042341    10.76425289
 C      9   8   7     6.213420646309   127.84336780    95.47755402
 C     19   9   8     2.695680270901   111.47317911   329.00071766
 N     20  19   9     2.165629847245   179.92486041    27.89740550
 H     19   9   8     2.061689875761     4.49482115    31.60556694
 H     19   9   8     2.059525538150   111.83381077    91.65965472
 H     19   9   8     2.059127735204   104.97168870   210.27061064
 C      6   1   2     6.050255517536   115.20637556   256.31552799
 C     25   6   1     2.687901976556    79.67778951    70.02625117
 N     26  25   6     2.167968643211   179.71436007     6.36835608
 H     25   6   1     2.061685049460    55.32588458   191.88673232
 H     25   6   1     2.057543628359   165.22227936   199.92324495
 H     25   6   1     2.062891115767    76.80391244   316.89539697
 C     11   7   4     5.973615501060   144.79848175    55.57198938
 C     31  11   7     2.693490716670    54.48731770   184.79166095
 N     32  31  11     2.167807546474   178.67855560   331.18353564
 H     31  11   7     2.063468322471    85.51019726    68.01791092
 H     31  11   7     2.061720111772    72.05773449   315.85788251
 H     31  11   7     2.056482399557   162.01065055   217.18244390
 C      5   1   2     8.156656322585   157.24782761   351.52564733
 C     37   5   1     2.694823510274    22.98526033   181.23539090
 N     38  37   5     2.166260919291   179.73335069    80.24717330
 H     37   5   1     2.058532697467    86.41918177   355.73109680
 H     37   5   1     2.058046762185   121.73408114   244.69454269
 H     37   5   1     2.061952589938   117.13003320   105.44340532
 C     12   7   4     7.854421167564   152.45534503   355.14577997
 C     43  12   7     2.690359684440    28.53022603   194.78897522
 N     44  43  12     2.167604754376   179.46146197   315.55257958
 H     43  12   7     2.057184610822   138.49897667   194.63085641
 H     43  12   7     2.063573649391    93.00928143    69.78294687
 H     43  12   7     2.060096440745    93.62018380   320.45617173
 C     47  43  12     8.194574314262   144.77066007    48.26013121
 C     49  47  43     2.691549043020    23.06274107   207.19623342
 N     50  49  47     2.167483554274   179.73626521   136.73150267
 H     49  47  43     2.061978513341   129.39735909   237.70118769
 H     49  47  43     2.057065609590   105.96853585   103.91467682
 H     49  47  43     2.062190385230    90.42161814   353.11923859
 C     10   7   4     6.226819816507   104.18108369   174.40197366
 C     55  10   7     2.696610015338    87.31463176    86.38714185
 N     56  55  10     2.166137308412   179.31739397    68.39847624
 H     55  10   7     2.059823539798    76.86520644   335.39846832
 H     55  10   7     2.060801812055    48.79695188   205.03047782
 H     55  10   7     2.057557662372   157.20044780   225.98390457
 C     17  13   4     5.803685069085   127.91421629    66.04488252
 C     61  17  13     2.690458171197   163.00011557   170.46148557
 N     62  61  17     2.167653070379   179.63390711   189.86703356
 H     61  17  13     2.060409315213    53.77712431   180.42366983
 H     61  17  13     2.061171175671    81.70101149   302.12648909
 H     61  17  13     2.057796468015    77.42699396    54.30992557
 C      3   2   1     6.196420108446   108.27546235    48.06433639
 C     67   3   2     2.694545231116   114.52263305   293.95158119
 N     68  67   3     2.166525832979   179.29513355    45.48049993
 H     67   3   2     2.061258563693    86.96448075    43.66316623
 H     67   3   2     2.056733115183   122.91440221   155.20801448
 H     67   3   2     2.060065782715    21.76760932   212.95794906
 C     24  19   9     7.706302983865   151.80421062   188.43902357
 C     73  24  19     2.692030460512    35.76382651   153.66273312
 N     74  73  24     2.166513976495   179.75486273   350.75022875
 H     73  24  19     2.059429671758    93.37180732   272.68265693
 H     73  24  19     2.057417325840   144.97881752   140.01851315
 H     73  24  19     2.063955651339    85.44059074    21.74870504
 C     15  14  13     6.537917629249   150.99159572    77.31319540
 C     79  15  14     2.698348139083   112.96283783   183.85190522
 N     80  79  15     2.166337380183   179.35925479   231.02210727
 H     79  15  14     2.060107528052     3.81850292   150.23924068
 H     79  15  14     2.057990656893   106.09808688   303.88518457
 H     79  15  14     2.061363043736   109.65753143    61.97756232
 C     21  20  19     6.094136307691   136.77346323   112.83638136
 C     85  21  20     2.694055470938    98.86577354    49.02652594
 N     86  85  21     2.166996304344   179.49756662     7.21552451
 H     85  21  20     2.057586780240   115.83142654   166.14143170
 H     85  21  20     2.057890364194   112.26212664   293.36527492
 H     85  21  20     2.064447455032     9.76124347   218.48366052
 C     69  68  67     6.190818305899   121.41664876   358.62459920
 C     91  69  68     2.695331800782    97.70005306     7.28390517
 N     92  91  69     2.166165130594   179.67302507    21.41927111
 H     91  69  68     2.057837039661   116.23945825   123.76203566
 H     91  69  68     2.057760172297   113.06482348   252.01849144
 H     91  69  68     2.064179307338    11.06911692   178.73655282
 C     87  86  85     6.534105954522   117.60071042   300.83878264
 C     97  87  86     2.691456710605   102.09419640   116.15856002
 N     98  97  87     2.167579062498   179.14154220    11.53118675
 H     97  87  86     2.061964675605     7.47130681   273.63928717
 H     97  87  86     2.057389110866   115.60109507   235.26928602
 H     97  87  86     2.061830868183   110.05562211     0.10350147
 C     33  32  31     6.234075442445   134.87036744   346.16256111
 C    103  33  32     2.692126203000   111.74845074   134.47455568
 N    104 103  33     2.167098588493   179.39765204   220.98304638
 H    103  33  32     2.060681979352   107.52077548    14.76344914
 H    103  33  32     2.062982595463     2.56482517   161.33663072
 H    103  33  32     2.057631581442   109.16600968   255.95348524
 C     63  62  61     6.223826488942   121.19278067   252.55086412
 C    109  63  62     2.692466938789   104.82283823   311.73457269
 N    110 109  63     2.167354336802   179.17855946   343.54036543
 H    109  63  62     2.060772946538   103.71507946    66.89999942
 H    109  63  62     2.057101427766   118.74630515   188.84853598
 H    109  63  62     2.062412916101     9.06214871   195.27138493
 C     87  86  85     6.305689231151   126.81784922    38.89688098
 C    115  87  86     2.695413026339   108.38887088   354.44834311
 N    116 115  87     2.166082050297   179.43411538   210.95793573
 H    115  87  86     2.062625304654     6.47789565    94.02301038
 H    115  87  86     2.057336725157   115.61919098   118.16241901
 H    115  87  86     2.059923446696   103.63219570   238.41655568

---------------------
BASIS SET INFORMATION
---------------------
There are 3 groups of distinct atoms

 Group   1 Type C   : 11s6p1d contracted to 5s3p1d pattern {62111/411/1}
 Group   2 Type N   : 11s6p2d contracted to 5s3p2d pattern {62111/411/11}
 Group   3 Type H   : 4s1p contracted to 2s1p pattern {31/1}

Atom   0C    basis set group =>   1
Atom   1C    basis set group =>   1
Atom   2N    basis set group =>   2
Atom   3H    basis set group =>   3
Atom   4H    basis set group =>   3
Atom   5H    basis set group =>   3
Atom   6C    basis set group =>   1
Atom   7C    basis set group =>   1
Atom   8N    basis set group =>   2
Atom   9H    basis set group =>   3
Atom  10H    basis set group =>   3
Atom  11H    basis set group =>   3
Atom  12C    basis set group =>   1
Atom  13C    basis set group =>   1
Atom  14N    basis set group =>   2
Atom  15H    basis set group =>   3
Atom  16H    basis set group =>   3
Atom  17H    basis set group =>   3
Atom  18C    basis set group =>   1
Atom  19C    basis set group =>   1
Atom  20N    basis set group =>   2
Atom  21H    basis set group =>   3
Atom  22H    basis set group =>   3
Atom  23H    basis set group =>   3
Atom  24C    basis set group =>   1
Atom  25C    basis set group =>   1
Atom  26N    basis set group =>   2
Atom  27H    basis set group =>   3
Atom  28H    basis set group =>   3
Atom  29H    basis set group =>   3
Atom  30C    basis set group =>   1
Atom  31C    basis set group =>   1
Atom  32N    basis set group =>   2
Atom  33H    basis set group =>   3
Atom  34H    basis set group =>   3
Atom  35H    basis set group =>   3
Atom  36C    basis set group =>   1
Atom  37C    basis set group =>   1
Atom  38N    basis set group =>   2
Atom  39H    basis set group =>   3
Atom  40H    basis set group =>   3
Atom  41H    basis set group =>   3
Atom  42C    basis set group =>   1
Atom  43C    basis set group =>   1
Atom  44N    basis set group =>   2
Atom  45H    basis set group =>   3
Atom  46H    basis set group =>   3
Atom  47H    basis set group =>   3
Atom  48C    basis set group =>   1
Atom  49C    basis set group =>   1
Atom  50N    basis set group =>   2
Atom  51H    basis set group =>   3
Atom  52H    basis set group =>   3
Atom  53H    basis set group =>   3
Atom  54C    basis set group =>   1
Atom  55C    basis set group =>   1
Atom  56N    basis set group =>   2
Atom  57H    basis set group =>   3
Atom  58H    basis set group =>   3
Atom  59H    basis set group =>   3
Atom  60C    basis set group =>   1
Atom  61C    basis set group =>   1
Atom  62N    basis set group =>   2
Atom  63H    basis set group =>   3
Atom  64H    basis set group =>   3
Atom  65H    basis set group =>   3
Atom  66C    basis set group =>   1
Atom  67C    basis set group =>   1
Atom  68N    basis set group =>   2
Atom  69H    basis set group =>   3
Atom  70H    basis set group =>   3
Atom  71H    basis set group =>   3
Atom  72C    basis set group =>   1
Atom  73C    basis set group =>   1
Atom  74N    basis set group =>   2
Atom  75H    basis set group =>   3
Atom  76H    basis set group =>   3
Atom  77H    basis set group =>   3
Atom  78C    basis set group =>   1
Atom  79C    basis set group =>   1
Atom  80N    basis set group =>   2
Atom  81H    basis set group =>   3
Atom  82H    basis set group =>   3
Atom  83H    basis set group =>   3
Atom  84C    basis set group =>   1
Atom  85C    basis set group =>   1
Atom  86N    basis set group =>   2
Atom  87H    basis set group =>   3
Atom  88H    basis set group =>   3
Atom  89H    basis set group =>   3
Atom  90C    basis set group =>   1
Atom  91C    basis set group =>   1
Atom  92N    basis set group =>   2
Atom  93H    basis set group =>   3
Atom  94H    basis set group =>   3
Atom  95H    basis set group =>   3
Atom  96C    basis set group =>   1
Atom  97C    basis set group =>   1
Atom  98N    basis set group =>   2
Atom  99H    basis set group =>   3
Atom 100H    basis set group =>   3
Atom 101H    basis set group =>   3
Atom 102C    basis set group =>   1
Atom 103C    basis set group =>   1
Atom 104N    basis set group =>   2
Atom 105H    basis set group =>   3
Atom 106H    basis set group =>   3
Atom 107H    basis set group =>   3
Atom 108C    basis set group =>   1
Atom 109C    basis set group =>   1
Atom 110N    basis set group =>   2
Atom 111H    basis set group =>   3
Atom 112H    basis set group =>   3
Atom 113H    basis set group =>   3
Atom 114C    basis set group =>   1
Atom 115C    basis set group =>   1
Atom 116N    basis set group =>   2
Atom 117H    basis set group =>   3
Atom 118H    basis set group =>   3
Atom 119H    basis set group =>   3
---------------------------------
AUXILIARY/J BASIS SET INFORMATION
---------------------------------
There are 3 groups of distinct atoms

 Group   1 Type C   : 12s5p4d2f1g contracted to 6s4p3d1f1g pattern {711111/2111/211/2/1}
 Group   2 Type N   : 12s5p4d2f1g contracted to 6s4p3d1f1g pattern {711111/2111/211/2/1}
 Group   3 Type H   : 5s2p1d contracted to 3s1p1d pattern {311/2/1}

Atom   0C    basis set group =>   1
Atom   1C    basis set group =>   1
Atom   2N    basis set group =>   2
Atom   3H    basis set group =>   3
Atom   4H    basis set group =>   3
Atom   5H    basis set group =>   3
Atom   6C    basis set group =>   1
Atom   7C    basis set group =>   1
Atom   8N    basis set group =>   2
Atom   9H    basis set group =>   3
Atom  10H    basis set group =>   3
Atom  11H    basis set group =>   3
Atom  12C    basis set group =>   1
Atom  13C    basis set group =>   1
Atom  14N    basis set group =>   2
Atom  15H    basis set group =>   3
Atom  16H    basis set group =>   3
Atom  17H    basis set group =>   3
Atom  18C    basis set group =>   1
Atom  19C    basis set group =>   1
Atom  20N    basis set group =>   2
Atom  21H    basis set group =>   3
Atom  22H    basis set group =>   3
Atom  23H    basis set group =>   3
Atom  24C    basis set group =>   1
Atom  25C    basis set group =>   1
Atom  26N    basis set group =>   2
Atom  27H    basis set group =>   3
Atom  28H    basis set group =>   3
Atom  29H    basis set group =>   3
Atom  30C    basis set group =>   1
Atom  31C    basis set group =>   1
Atom  32N    basis set group =>   2
Atom  33H    basis set group =>   3
Atom  34H    basis set group =>   3
Atom  35H    basis set group =>   3
Atom  36C    basis set group =>   1
Atom  37C    basis set group =>   1
Atom  38N    basis set group =>   2
Atom  39H    basis set group =>   3
Atom  40H    basis set group =>   3
Atom  41H    basis set group =>   3
Atom  42C    basis set group =>   1
Atom  43C    basis set group =>   1
Atom  44N    basis set group =>   2
Atom  45H    basis set group =>   3
Atom  46H    basis set group =>   3
Atom  47H    basis set group =>   3
Atom  48C    basis set group =>   1
Atom  49C    basis set group =>   1
Atom  50N    basis set group =>   2
Atom  51H    basis set group =>   3
Atom  52H    basis set group =>   3
Atom  53H    basis set group =>   3
Atom  54C    basis set group =>   1
Atom  55C    basis set group =>   1
Atom  56N    basis set group =>   2
Atom  57H    basis set group =>   3
Atom  58H    basis set group =>   3
Atom  59H    basis set group =>   3
Atom  60C    basis set group =>   1
Atom  61C    basis set group =>   1
Atom  62N    basis set group =>   2
Atom  63H    basis set group =>   3
Atom  64H    basis set group =>   3
Atom  65H    basis set group =>   3
Atom  66C    basis set group =>   1
Atom  67C    basis set group =>   1
Atom  68N    basis set group =>   2
Atom  69H    basis set group =>   3
Atom  70H    basis set group =>   3
Atom  71H    basis set group =>   3
Atom  72C    basis set group =>   1
Atom  73C    basis set group =>   1
Atom  74N    basis set group =>   2
Atom  75H    basis set group =>   3
Atom  76H    basis set group =>   3
Atom  77H    basis set group =>   3
Atom  78C    basis set group =>   1
Atom  79C    basis set group =>   1
Atom  80N    basis set group =>   2
Atom  81H    basis set group =>   3
Atom  82H    basis set group =>   3
Atom  83H    basis set group =>   3
Atom  84C    basis set group =>   1
Atom  85C    basis set group =>   1
Atom  86N    basis set group =>   2
Atom  87H    basis set group =>   3
Atom  88H    basis set group =>   3
Atom  89H    basis set group =>   3
Atom  90C    basis set group =>   1
Atom  91C    basis set group =>   1
Atom  92N    basis set group =>   2
Atom  93H    basis set group =>   3
Atom  94H    basis set group =>   3
Atom  95H    basis set group =>   3
Atom  96C    basis set group =>   1
Atom  97C    basis set group =>   1
Atom  98N    basis set group =>   2
Atom  99H    basis set group =>   3
Atom 100H    basis set group =>   3
Atom 101H    basis set group =>   3
Atom 102C    basis set group =>   1
Atom 103C    basis set group =>   1
Atom 104N    basis set group =>   2
Atom 105H    basis set group =>   3
Atom 106H    basis set group =>   3
Atom 107H    basis set group =>   3
Atom 108C    basis set group =>   1
Atom 109C    basis set group =>   1
Atom 110N    basis set group =>   2
Atom 111H    basis set group =>   3
Atom 112H    basis set group =>   3
Atom 113H    basis set group =>   3
Atom 114C    basis set group =>   1
Atom 115C    basis set group =>   1
Atom 116N    basis set group =>   2
Atom 117H    basis set group =>   3
Atom 118H    basis set group =>   3
Atom 119H    basis set group =>   3


           ************************************************************
           *        Program running with 8 parallel MPI-processes     *
           *              working on a common directory               *
           ************************************************************
------------------------------------------------------------------------------
                           ORCA GTO INTEGRAL CALCULATION
                           -- RI-GTO INTEGRALS CHOSEN --
------------------------------------------------------------------------------
------------------------------------------------------------------------------
                   ___                                                        
                  /   \      - P O W E R E D   B Y -                         
                 /     \                                                     
                 |  |  |   _    _      __       _____    __    __             
                 |  |  |  | |  | |    /  \     |  _  \  |  |  /  |          
                  \  \/   | |  | |   /    \    | | | |  |  | /  /          
                 / \  \   | |__| |  /  /\  \   | |_| |  |  |/  /          
                |  |  |   |  __  | /  /__\  \  |    /   |      \           
                |  |  |   | |  | | |   __   |  |    \   |  |\   \          
                \     /   | |  | | |  |  |  |  | |\  \  |  | \   \       
                 \___/    |_|  |_| |__|  |__|  |_| \__\ |__|  \__/        
                                                                              
                      - O R C A' S   B I G   F R I E N D -                    
                                      &                                       
                       - I N T E G R A L  F E E D E R -                       
                                                                              
 v1 FN, 2020, v2 2021                                                         
------------------------------------------------------------------------------


Reading SHARK input file ORCA.SHARKINP.tmp ... ok
----------------------
SHARK INTEGRAL PACKAGE
----------------------

Number of atoms                             ...    120
Number of basis functions                   ...   1540
Number of shells                            ...    740
Maximum angular momentum                    ...      2
Integral batch strategy                     ... SHARK/LIBINT Hybrid
RI-J (if used) integral strategy            ... SPLIT-RIJ (Revised 2003 algorithm where possible)
Printlevel                                  ...      1
Contraction scheme used                     ... SEGMENTED contraction
Coulomb Range Separation                    ... NOT USED
Exchange Range Separation                   ... NOT USED
Finite Nucleus Model                        ... NOT USED
Auxiliary Coulomb fitting basis             ... AVAILABLE
   # of basis functions in Aux-J            ...   3600
   # of shells in Aux-J                     ...   1200
   Maximum angular momentum in Aux-J        ...      4
Auxiliary J/K fitting basis                 ... NOT available
Auxiliary Correlation fitting basis         ... NOT available
Auxiliary 'external' fitting basis          ... NOT available
Integral threshold                          ...     2.500000e-11
Primitive cut-off                           ...     2.500000e-12
Primitive pair pre-selection threshold      ...     2.500000e-12

Calculating pre-screening integrals         ... done (  0.1 sec) Dimension = 740
Organizing shell pair data                  ... done (  0.7 sec)
Shell pair information
Total number of shell pairs                 ...    274170
Shell pairs after pre-screening             ...    104236
Total number of primitive shell pairs       ...    982200
Primitive shell pairs kept                  ...    201460
          la=0 lb=0:  31804 shell pairs
          la=1 lb=0:  40017 shell pairs
          la=1 lb=1:  12761 shell pairs
          la=2 lb=0:  11266 shell pairs
          la=2 lb=1:   7361 shell pairs
          la=2 lb=2:   1027 shell pairs

Calculating one electron integrals          ... done (  0.3 sec)
Calculating RI/J V-Matrix + Cholesky decomp.... done (  0.7 sec)
Calculating Nuclear repulsion               ... done (  0.0 sec) ENN=   8041.423650058798 Eh

SHARK setup successfully completed in   2.6 seconds

Maximum memory used throughout the entire GTOINT-calculation: 166.8 MB


           ************************************************************
           *        Program running with 8 parallel MPI-processes     *
           *              working on a common directory               *
           ************************************************************
-------------------------------------------------------------------------------
                                 ORCA SCF
-------------------------------------------------------------------------------

------------
SCF SETTINGS
------------
Hamiltonian:
 Density Functional     Method          .... DFT(GTOs)
  Functional kind                       .... Exchange
  Functional name                       .... Re-regularized SCAN exchange by Furness et al
  Functional family                     .... MGGA
  Functional refs                              
    [ 0] J. W. Furness, A. D. Kaplan, J. Ning, J. P. Perdew, and J. Sun, J. Phys. Chem. Lett. 11, 8208 (2020)
    [ 1] J. W. Furness, A. D. Kaplan, J. Ning, J. P. Perdew, and J. Sun, J. Phys. Chem. Lett. 11, 9248 (2020)
  Functional external parameters         .... 8
 Parameter  0 :         c1 parameter
 Parameter  1 :         c2 parameter
 Parameter  2 :          d parameter
 Parameter  3 :         k1 parameter
 Parameter  4 :       taur parameter
 Parameter  5 :     alphar parameter
 Parameter  6 :        eta parameter
 Parameter  7 :        dp2 parameter
  Functional kind                       .... Correlation
  Functional name                       .... Re-regularized SCAN correlation by Furness et al
  Functional family                     .... MGGA
  Functional refs                              
    [ 0] J. W. Furness, A. D. Kaplan, J. Ning, J. P. Perdew, and J. Sun, J. Phys. Chem. Lett. 11, 8208 (2020)
    [ 1] J. W. Furness, A. D. Kaplan, J. Ning, J. P. Perdew, and J. Sun, J. Phys. Chem. Lett. 11, 9248 (2020)
  Functional external parameters         .... 0
 Gradients option       PostSCFGGA      .... off
   Density functional embedding theory  .... OFF
 RI-approximation to the Coulomb term is turned on
   Number of AuxJ basis functions       .... 3600


General Settings:
 Integral files         IntName         .... ORCA
 Hartree-Fock type      HFTyp           .... RHF
 Total Charge           Charge          ....    0
 Multiplicity           Mult            ....    1
 Number of Electrons    NEL             ....  440
 Basis Dimension        Dim             .... 1540
 Nuclear Repulsion      ENuc            ....   8041.4236500588 Eh

Convergence Acceleration:
 DIIS                   CNVDIIS         .... on
   Start iteration      DIISMaxIt       ....    12
   Startup error        DIISStart       ....  0.200000
   # of expansion vecs  DIISMaxEq       ....     5
   Bias factor          DIISBfac        ....   1.050
   Max. coefficient     DIISMaxC        ....  10.000
 Trust-Rad. Augm. Hess. CNVTRAH         .... auto
   Auto Start mean grad. ratio tolernc. ....  1.125000
   Auto Start start iteration           ....    20
   Auto Start num. interpolation iter.  ....    10
   Max. Number of Micro iterations      ....    16
   Max. Number of Macro iterations      .... Maxiter - #DIIS iter
   Number of Davidson start vectors     ....     2
   Converg. threshold I  (grad. norm)   ....   1.000e-05
   Converg. threshold II (energy diff.) ....   1.000e-08
   Grad. Scal. Fac. for Micro threshold ....   0.100
   Minimum threshold for Micro iter.    ....   0.010
   NR start threshold (gradient norm)   ....   0.001
   Initial trust radius                 ....   0.400
   Minimum AH scaling param. (alpha)    ....   1.000
   Maximum AH scaling param. (alpha)    .... 1000.000
   Orbital update algorithm             .... Taylor
   White noise on init. David. guess    .... on
   Maximum white noise                  ....   0.010
   Quad. conv. algorithm                .... NR
   COSX micro iterations for RIJONX calc.... off
 SOSCF                  CNVSOSCF        .... on
   Start iteration      SOSCFMaxIt      ....   150
   Startup grad/error   SOSCFStart      ....  0.003300
 Level Shifting         CNVShift        .... on
   Level shift para.    LevelShift      ....    0.2500
   Turn off err/grad.   ShiftErr        ....    0.0010
 Zerner damping         CNVZerner       .... off
 Static damping         CNVDamp         .... on
   Fraction old density DampFac         ....    0.7000
   Max. Damping (<1)    DampMax         ....    0.9800
   Min. Damping (>=0)   DampMin         ....    0.0000
   Turn off err/grad.   DampErr         ....    0.1000
 Fernandez-Rico         CNVRico         .... off

SCF Procedure:
 Maximum # iterations   MaxIter         ....   125
 SCF integral mode      SCFMode         .... Direct
   Integral package                     .... SHARK and LIBINT hybrid scheme
 Reset frequency        DirectResetFreq ....    20
 Integral Threshold     Thresh          ....  2.500e-11 Eh
 Primitive CutOff       TCut            ....  2.500e-12 Eh

Convergence Tolerance:
 Convergence Check Mode ConvCheckMode   .... Total+1el-Energy
 Convergence forced     ConvForced      .... 0
 Energy Change          TolE            ....  1.000e-08 Eh
 1-El. energy change                    ....  1.000e-05 Eh
 Orbital Gradient       TolG            ....  1.000e-05
 Orbital Rotation angle TolX            ....  1.000e-05
 DIIS Error             TolErr          ....  5.000e-07


Diagonalization of the overlap matrix:
Smallest eigenvalue                        ... 7.410e-05
Time for diagonalization                   ...    0.400 sec
Threshold for overlap eigenvalues          ... 1.000e-08
Number of eigenvalues below threshold      ... 0
Time for construction of square roots      ...    0.345 sec
Total time needed                          ...    0.760 sec

Time for model grid setup =    2.085 sec

------------------------------
INITIAL GUESS: MODEL POTENTIAL
------------------------------
Loading Hartree-Fock densities                     ... done
Calculating cut-offs                               ... done
Initializing the effective Hamiltonian             ... done
Setting up the integral package (SHARK)            ... done
Starting the Coulomb interaction                   ... done (   3.2 sec)
Reading the grid                                   ... done
Mapping shells                                     ... done
Starting the XC term evaluation                    ... done (   0.7 sec)
  promolecular density results
     # of electrons  =    439.983319365
     EX              =   -351.709871448
     EC              =    -14.053151531
     EX+EC           =   -365.763022979
Transforming the Hamiltonian                       ... done (   0.2 sec)
Diagonalizing the Hamiltonian                      ... done (   0.4 sec)
Back transforming the eigenvectors                 ... done (   0.1 sec)
Now organizing SCF variables                       ... done
                      ------------------
                      INITIAL GUESS DONE (   6.8 sec)
                      ------------------
-------------------
DFT GRID GENERATION
-------------------

General Integration Accuracy     IntAcc      ... 4.959
Radial Grid Type                 RadialGrid  ... OptM3 with GC (2021)
Angular Grid (max. ang.)         AngularGrid ... 6 (Lebedev-590)
Angular grid pruning method      GridPruning ... 4 (adaptive)
Weight generation scheme         WeightScheme... Becke
Basis function cutoff            BFCut       ... 1.0000e-11
Integration weight cutoff        WCut        ... 1.0000e-14
Angular grids for H and He will be reduced by one unit
Partially contracted basis set               ... off
Rotationally invariant grid construction     ... off

Total number of grid points                  ...  1360355
Total number of batches                      ...    21316
Average number of points per batch           ...       63
Average number of grid points per atom       ...    11336
Time for grid setup =   25.389 sec


--------------------
CPCM SOLVATION MODEL
--------------------
CPCM parameters:
  Epsilon                                         ...      35.6880
  Refrac                                          ...       1.3442
  Rsolv                                           ...       1.3000
  Surface type                                    ... GAUSSIAN VDW
  Epsilon function type                           ...         CPCM
Solvent:                                     ... MECN
SMD-CDS solvent descriptors:
  Soln                                       ...    1.3442
  Soln25                                     ...    1.3416
  Sola                                       ...    0.0700
  Solb                                       ...    0.3200
  Solg                                       ...   41.2500
  Solc                                       ...    0.0000
  Solh                                       ...    0.0000
Radii:
 Radius for C  used is    3.4960 Bohr (=   1.8500 Ang.)
 Radius for N  used is    3.5716 Bohr (=   1.8900 Ang.)
 Radius for H  used is    2.2677 Bohr (=   1.2000 Ang.)
Calculating surface                               ...        done! (  0.0s)
GEPOL surface points                              ...         7898
GEPOL Volume                                      ...    7425.8364
GEPOL Surface-area                                ...    4590.2020
Calculating surface distance matrix               ...        done! (  1.0s)
Performing Cholesky decomposition & store         ...        done! (  6.1s)
Overall time for CPCM initialization              ...                 7.1s
--------------
SCF ITERATIONS
--------------
ITER       Energy         Delta-E        Max-DP      RMS-DP      [F,P]     Damp
               ***  Starting incremental Fock matrix formation  ***
  0  -2652.5435344587   0.000000000000 0.04244730  0.00050802  0.2388035 0.7000
  1  -2653.5322083712  -0.988673912532 0.02760319  0.00036177  0.0967504 0.7000
                               ***Turning on DIIS***
  2  -2653.8738100000  -0.341601628745 0.03869568  0.00059966  0.0392844 0.0000
  3  -2654.4560108573  -0.582200857357 0.02285838  0.00029959  0.0451944 0.0000
  4  -2654.5661811123  -0.110170255013 0.01000484  0.00011022  0.0246201 0.0000
  5  -2654.5853953577  -0.019214245377 0.00321741  0.00003419  0.0044686 0.0000
                      *** Initiating the SOSCF procedure ***
                           *** Shutting down DIIS ***
                      *** Re-Reading the Fockian *** 
                      *** Removing any level shift *** 
ITER      Energy       Delta-E        Grad      Rot      Max-DP    RMS-DP
  6  -2654.58603682  -0.0006414620  0.000151  0.000151  0.000667  0.000010
               *** Restarting incremental Fock matrix formation ***
  7  -2654.58608706  -0.0000502451  0.000049  0.000172  0.000347  0.000006
  8  -2654.58608713  -0.0000000625  0.000074  0.000107  0.000184  0.000002
  9  -2654.58609036  -0.0000032342  0.000053  0.000097  0.000163  0.000002
 10  -2654.58608935   0.0000010114  0.000061  0.000052  0.000090  0.000001
                  ***Gradient check signals convergence***
              ***Rediagonalizing the Fockian in SOSCF/NRSCF***

               *****************************************************
               *                     SUCCESS                       *
               *           SCF CONVERGED AFTER  11 CYCLES          *
               *****************************************************


SMD CDS free energy correction energy :                13.54210     Kcal/mol
Total Energy after SMD CDS correction =             -2654.564510285 Eh

----------------
TOTAL SCF ENERGY
----------------

Total Energy       :        -2654.56451029 Eh          -72234.37265 eV

Components:
Nuclear Repulsion  :         8041.42365006 Eh          218818.26202 eV
Electronic Energy  :       -10695.98816034 Eh         -291052.63467 eV
One Electron Energy:       -19620.16676932 Eh         -533891.88033 eV
Two Electron Energy:         8924.17860898 Eh          242839.24566 eV
CPCM Dielectric    :           -0.10541973 Eh              -2.86862 eV
SMD CDS (Gcds)     :            0.02158070 Eh               0.58724 eV

Virial components:
Potential Energy   :        -5299.26763152 Eh         -144200.40326 eV
Kinetic Energy     :         2644.70312124 Eh           71966.03061 eV
Virial Ratio       :            2.00372873


DFT components:
N(Alpha)           :      219.999862774467 electrons
N(Beta)            :      219.999862774467 electrons
N(Total)           :      439.999725548933 electrons
E(X)               :     -361.542390490973 Eh       
E(C)               :      -13.846153986394 Eh       
E(XC)              :     -375.388544477367 Eh       
DFET-embed. en.    :        0.000000000000 Eh       
CPCM Solvation Model Properties:
Surface-charge          :           -0.06547716
Charge-correction       :           -0.00017495 Eh              -0.00476 eV
Free-energy (cav+disp)  :            0.02158070 Eh               0.58724 eV

---------------
SCF CONVERGENCE
---------------

  Last Energy change         ...   -1.6393e-06  Tolerance :   1.0000e-08
  Last MAX-Density change    ...    2.3026e-05  Tolerance :   1.0000e-07
  Last RMS-Density change    ...    1.9124e-07  Tolerance :   5.0000e-09
  Last Orbital Gradient      ...    1.9362e-06  Tolerance :   1.0000e-05
  Last Orbital Rotation      ...    4.9385e-06  Tolerance :   1.0000e-05

             **** THE GBW FILE WAS UPDATED (ORCA.gbw) ****
             **** DENSITY ORCA.scfp WAS UPDATED ****
             **** ENERGY FILE WAS UPDATED (ORCA.en.tmp) ****
             **** THE GBW FILE WAS UPDATED (ORCA.gbw) ****
             **** DENSITY ORCA.scfp WAS UPDATED ****
----------------
ORBITAL ENERGIES
----------------

  NO   OCC          E(Eh)            E(eV) 
   0   2.0000     -14.158144      -385.2627 
   1   2.0000     -14.157246      -385.2382 
   2   2.0000     -14.157042      -385.2327 
   3   2.0000     -14.156960      -385.2305 
   4   2.0000     -14.156755      -385.2249 
   5   2.0000     -14.156640      -385.2218 
   6   2.0000     -14.156608      -385.2209 
   7   2.0000     -14.156322      -385.2131 
   8   2.0000     -14.156257      -385.2113 
   9   2.0000     -14.156007      -385.2045 
  10   2.0000     -14.155725      -385.1969 
  11   2.0000     -14.155558      -385.1923 
  12   2.0000     -14.155552      -385.1922 
  13   2.0000     -14.155552      -385.1921 
  14   2.0000     -14.155365      -385.1871 
  15   2.0000     -14.155296      -385.1852 
  16   2.0000     -14.155176      -385.1819 
  17   2.0000     -14.154732      -385.1698 
  18   2.0000     -14.154668      -385.1681 
  19   2.0000     -14.154559      -385.1651 
  20   2.0000     -10.082726      -274.3649 
  21   2.0000     -10.082303      -274.3534 
  22   2.0000     -10.081604      -274.3344 
  23   2.0000     -10.081570      -274.3335 
  24   2.0000     -10.081286      -274.3257 
  25   2.0000     -10.081271      -274.3253 
  26   2.0000     -10.080899      -274.3152 
  27   2.0000     -10.080737      -274.3108 
  28   2.0000     -10.080705      -274.3099 
  29   2.0000     -10.080463      -274.3034 
  30   2.0000     -10.080282      -274.2984 
  31   2.0000     -10.080006      -274.2909 
  32   2.0000     -10.079990      -274.2905 
  33   2.0000     -10.079837      -274.2863 
  34   2.0000     -10.079640      -274.2809 
  35   2.0000     -10.079569      -274.2790 
  36   2.0000     -10.079068      -274.2654 
  37   2.0000     -10.079036      -274.2645 
  38   2.0000     -10.078520      -274.2505 
  39   2.0000     -10.077907      -274.2338 
  40   2.0000     -10.055181      -273.6154 
  41   2.0000     -10.054601      -273.5996 
  42   2.0000     -10.054079      -273.5854 
  43   2.0000     -10.053871      -273.5797 
  44   2.0000     -10.053708      -273.5753 
  45   2.0000     -10.053448      -273.5682 
  46   2.0000     -10.053351      -273.5656 
  47   2.0000     -10.052682      -273.5474 
  48   2.0000     -10.052035      -273.5298 
  49   2.0000     -10.051916      -273.5265 
  50   2.0000     -10.051472      -273.5145 
  51   2.0000     -10.051345      -273.5110 
  52   2.0000     -10.050855      -273.4977 
  53   2.0000     -10.050784      -273.4957 
  54   2.0000     -10.050650      -273.4921 
  55   2.0000     -10.050453      -273.4867 
  56   2.0000     -10.050391      -273.4850 
  57   2.0000     -10.049852      -273.4704 
  58   2.0000     -10.049701      -273.4663 
  59   2.0000     -10.048771      -273.4410 
  60   2.0000      -0.885743       -24.1023 
  61   2.0000      -0.885398       -24.0929 
  62   2.0000      -0.884577       -24.0706 
  63   2.0000      -0.884344       -24.0642 
  64   2.0000      -0.884130       -24.0584 
  65   2.0000      -0.883980       -24.0543 
  66   2.0000      -0.883887       -24.0518 
  67   2.0000      -0.883787       -24.0491 
  68   2.0000      -0.883680       -24.0462 
  69   2.0000      -0.883188       -24.0328 
  70   2.0000      -0.883083       -24.0299 
  71   2.0000      -0.882893       -24.0247 
  72   2.0000      -0.882853       -24.0237 
  73   2.0000      -0.882712       -24.0198 
  74   2.0000      -0.882617       -24.0172 
  75   2.0000      -0.882526       -24.0148 
  76   2.0000      -0.882061       -24.0021 
  77   2.0000      -0.881621       -23.9901 
  78   2.0000      -0.881584       -23.9891 
  79   2.0000      -0.881047       -23.9745 
  80   2.0000      -0.734626       -19.9902 
  81   2.0000      -0.734218       -19.9791 
  82   2.0000      -0.733849       -19.9690 
  83   2.0000      -0.733271       -19.9533 
  84   2.0000      -0.733178       -19.9508 
  85   2.0000      -0.732993       -19.9458 
  86   2.0000      -0.732709       -19.9380 
  87   2.0000      -0.732364       -19.9286 
  88   2.0000      -0.731924       -19.9167 
  89   2.0000      -0.731387       -19.9021 
  90   2.0000      -0.731204       -19.8971 
  91   2.0000      -0.730958       -19.8904 
  92   2.0000      -0.730660       -19.8823 
  93   2.0000      -0.730507       -19.8781 
  94   2.0000      -0.730120       -19.8676 
  95   2.0000      -0.729760       -19.8578 
  96   2.0000      -0.729488       -19.8504 
  97   2.0000      -0.729381       -19.8475 
  98   2.0000      -0.728872       -19.8336 
  99   2.0000      -0.728638       -19.8272 
 100   2.0000      -0.478839       -13.0299 
 101   2.0000      -0.476761       -12.9733 
 102   2.0000      -0.475541       -12.9401 
 103   2.0000      -0.474206       -12.9038 
 104   2.0000      -0.473442       -12.8830 
 105   2.0000      -0.473329       -12.8799 
 106   2.0000      -0.471222       -12.8226 
 107   2.0000      -0.471033       -12.8174 
 108   2.0000      -0.470460       -12.8019 
 109   2.0000      -0.469822       -12.7845 
 110   2.0000      -0.469156       -12.7664 
 111   2.0000      -0.468591       -12.7510 
 112   2.0000      -0.468212       -12.7407 
 113   2.0000      -0.467498       -12.7213 
 114   2.0000      -0.466729       -12.7004 
 115   2.0000      -0.466409       -12.6916 
 116   2.0000      -0.465858       -12.6766 
 117   2.0000      -0.465042       -12.6544 
 118   2.0000      -0.464147       -12.6301 
 119   2.0000      -0.463188       -12.6040 
 120   2.0000      -0.429555       -11.6888 
 121   2.0000      -0.428431       -11.6582 
 122   2.0000      -0.428238       -11.6529 
 123   2.0000      -0.426107       -11.5950 
 124   2.0000      -0.424962       -11.5638 
 125   2.0000      -0.424219       -11.5436 
 126   2.0000      -0.423957       -11.5365 
 127   2.0000      -0.423588       -11.5264 
 128   2.0000      -0.423038       -11.5115 
 129   2.0000      -0.421874       -11.4798 
 130   2.0000      -0.421729       -11.4758 
 131   2.0000      -0.421307       -11.4644 
 132   2.0000      -0.420872       -11.4525 
 133   2.0000      -0.420688       -11.4475 
 134   2.0000      -0.420068       -11.4306 
 135   2.0000      -0.420002       -11.4288 
 136   2.0000      -0.419563       -11.4169 
 137   2.0000      -0.418739       -11.3945 
 138   2.0000      -0.418404       -11.3853 
 139   2.0000      -0.417837       -11.3699 
 140   2.0000      -0.417570       -11.3627 
 141   2.0000      -0.417419       -11.3585 
 142   2.0000      -0.417288       -11.3550 
 143   2.0000      -0.416578       -11.3357 
 144   2.0000      -0.416381       -11.3303 
 145   2.0000      -0.416045       -11.3212 
 146   2.0000      -0.415322       -11.3015 
 147   2.0000      -0.414684       -11.2841 
 148   2.0000      -0.413692       -11.2571 
 149   2.0000      -0.413253       -11.2452 
 150   2.0000      -0.412833       -11.2337 
 151   2.0000      -0.412318       -11.2197 
 152   2.0000      -0.411955       -11.2099 
 153   2.0000      -0.411832       -11.2065 
 154   2.0000      -0.410960       -11.1828 
 155   2.0000      -0.410064       -11.1584 
 156   2.0000      -0.409436       -11.1413 
 157   2.0000      -0.408825       -11.1247 
 158   2.0000      -0.407813       -11.0972 
 159   2.0000      -0.406222       -11.0539 
 160   2.0000      -0.350478        -9.5370 
 161   2.0000      -0.349661        -9.5148 
 162   2.0000      -0.348332        -9.4786 
 163   2.0000      -0.347680        -9.4609 
 164   2.0000      -0.347094        -9.4449 
 165   2.0000      -0.346681        -9.4337 
 166   2.0000      -0.345916        -9.4129 
 167   2.0000      -0.345282        -9.3956 
 168   2.0000      -0.345000        -9.3879 
 169   2.0000      -0.344660        -9.3787 
 170   2.0000      -0.344254        -9.3676 
 171   2.0000      -0.343759        -9.3542 
 172   2.0000      -0.343103        -9.3363 
 173   2.0000      -0.342740        -9.3264 
 174   2.0000      -0.342163        -9.3107 
 175   2.0000      -0.341451        -9.2913 
 176   2.0000      -0.341013        -9.2794 
 177   2.0000      -0.340664        -9.2699 
 178   2.0000      -0.340154        -9.2561 
 179   2.0000      -0.338798        -9.2192 
 180   2.0000      -0.318562        -8.6685 
 181   2.0000      -0.317909        -8.6507 
 182   2.0000      -0.316029        -8.5996 
 183   2.0000      -0.315884        -8.5956 
 184   2.0000      -0.315042        -8.5727 
 185   2.0000      -0.314740        -8.5645 
 186   2.0000      -0.313878        -8.5411 
 187   2.0000      -0.313369        -8.5272 
 188   2.0000      -0.312985        -8.5168 
 189   2.0000      -0.312289        -8.4978 
 190   2.0000      -0.311100        -8.4655 
 191   2.0000      -0.310643        -8.4530 
 192   2.0000      -0.310549        -8.4505 
 193   2.0000      -0.309838        -8.4311 
 194   2.0000      -0.309040        -8.4094 
 195   2.0000      -0.308610        -8.3977 
 196   2.0000      -0.308022        -8.3817 
 197   2.0000      -0.307594        -8.3700 
 198   2.0000      -0.306791        -8.3482 
 199   2.0000      -0.306062        -8.3284 
 200   2.0000      -0.305504        -8.3132 
 201   2.0000      -0.304687        -8.2910 
 202   2.0000      -0.304629        -8.2894 
 203   2.0000      -0.304009        -8.2725 
 204   2.0000      -0.303104        -8.2479 
 205   2.0000      -0.302312        -8.2263 
 206   2.0000      -0.302148        -8.2219 
 207   2.0000      -0.300823        -8.1858 
 208   2.0000      -0.300330        -8.1724 
 209   2.0000      -0.299561        -8.1515 
 210   2.0000      -0.298771        -8.1300 
 211   2.0000      -0.298344        -8.1184 
 212   2.0000      -0.297693        -8.1006 
 213   2.0000      -0.297211        -8.0875 
 214   2.0000      -0.296795        -8.0762 
 215   2.0000      -0.296289        -8.0624 
 216   2.0000      -0.294655        -8.0180 
 217   2.0000      -0.294339        -8.0094 
 218   2.0000      -0.293815        -7.9951 
 219   2.0000      -0.292929        -7.9710 
 220   0.0000      -0.009958        -0.2710 
 221   0.0000      -0.008028        -0.2184 
 222   0.0000      -0.007226        -0.1966 
 223   0.0000      -0.006490        -0.1766 
 224   0.0000      -0.004951        -0.1347 
 225   0.0000      -0.003919        -0.1066 
 226   0.0000      -0.003401        -0.0925 
 227   0.0000      -0.002051        -0.0558 
 228   0.0000      -0.001009        -0.0275 
 229   0.0000      -0.000377        -0.0103 
 230   0.0000       0.000944         0.0257 
 231   0.0000       0.001279         0.0348 
 232   0.0000       0.001763         0.0480 
 233   0.0000       0.002279         0.0620 
 234   0.0000       0.004183         0.1138 
 235   0.0000       0.004494         0.1223 
 236   0.0000       0.004941         0.1345 
 237   0.0000       0.005870         0.1597 
 238   0.0000       0.006587         0.1792 
 239   0.0000       0.007360         0.2003 
 240   0.0000       0.009005         0.2450 
 241   0.0000       0.009217         0.2508 
 242   0.0000       0.009667         0.2630 
 243   0.0000       0.010029         0.2729 
 244   0.0000       0.010652         0.2899 
 245   0.0000       0.011649         0.3170 
 246   0.0000       0.011941         0.3249 
 247   0.0000       0.013874         0.3775 
 248   0.0000       0.014110         0.3839 
 249   0.0000       0.015064         0.4099 
 250   0.0000       0.015812         0.4303 
 251   0.0000       0.016951         0.4613 
 252   0.0000       0.017722         0.4822 
 253   0.0000       0.019018         0.5175 
 254   0.0000       0.019514         0.5310 
 255   0.0000       0.020350         0.5537 
 256   0.0000       0.020461         0.5568 
 257   0.0000       0.021169         0.5760 
 258   0.0000       0.023051         0.6272 
 259   0.0000       0.025089         0.6827 
 260   0.0000       0.025504         0.6940 
 261   0.0000       0.026102         0.7103 
 262   0.0000       0.032614         0.8875 
 263   0.0000       0.041443         1.1277 
 264   0.0000       0.045263         1.2317 
 265   0.0000       0.048890         1.3304 
 266   0.0000       0.057190         1.5562 
 267   0.0000       0.058241         1.5848 
 268   0.0000       0.066171         1.8006 
 269   0.0000       0.072117         1.9624 
 270   0.0000       0.073745         2.0067 
 271   0.0000       0.079024         2.1503 
 272   0.0000       0.081449         2.2163 
 273   0.0000       0.084245         2.2924 
 274   0.0000       0.091988         2.5031 
 275   0.0000       0.092442         2.5155 
 276   0.0000       0.096615         2.6290 
 277   0.0000       0.098253         2.6736 
 278   0.0000       0.103317         2.8114 
 279   0.0000       0.103972         2.8292 
 280   0.0000       0.113641         3.0923 
 281   0.0000       0.119527         3.2525 
 282   0.0000       0.121107         3.2955 
 283   0.0000       0.125111         3.4044 
 284   0.0000       0.126272         3.4360 
 285   0.0000       0.128823         3.5055 
 286   0.0000       0.133465         3.6318 
 287   0.0000       0.135878         3.6974 
 288   0.0000       0.138527         3.7695 
 289   0.0000       0.140349         3.8191 
 290   0.0000       0.141687         3.8555 
 291   0.0000       0.141987         3.8637 
 292   0.0000       0.145154         3.9498 
 293   0.0000       0.146236         3.9793 
 294   0.0000       0.147533         4.0146 
 295   0.0000       0.148894         4.0516 
 296   0.0000       0.150051         4.0831 
 297   0.0000       0.151769         4.1299 
 298   0.0000       0.154895         4.2149 
 299   0.0000       0.155570         4.2333 
 300   0.0000       0.157082         4.2744 
 301   0.0000       0.157758         4.2928 
 302   0.0000       0.159267         4.3339 
 303   0.0000       0.160937         4.3793 
 304   0.0000       0.161359         4.3908 
 305   0.0000       0.162939         4.4338 
 306   0.0000       0.163420         4.4469 
 307   0.0000       0.165005         4.4900 
 308   0.0000       0.166644         4.5346 
 309   0.0000       0.167392         4.5550 
 310   0.0000       0.169796         4.6204 
 311   0.0000       0.170473         4.6388 
 312   0.0000       0.171799         4.6749 
 313   0.0000       0.173008         4.7078 
 314   0.0000       0.173286         4.7154 
 315   0.0000       0.175519         4.7761 
 316   0.0000       0.176334         4.7983 
 317   0.0000       0.177500         4.8300 
 318   0.0000       0.178835         4.8663 
 319   0.0000       0.180461         4.9106 
 320   0.0000       0.182335         4.9616 
 321   0.0000       0.183537         4.9943 
 322   0.0000       0.184410         5.0180 
 323   0.0000       0.186692         5.0801 
 324   0.0000       0.187896         5.1129 
 325   0.0000       0.189079         5.1451 
 326   0.0000       0.189905         5.1676 
 327   0.0000       0.190706         5.1894 
 328   0.0000       0.192474         5.2375 
 329   0.0000       0.193357         5.2615 
 330   0.0000       0.194212         5.2848 
 331   0.0000       0.194889         5.3032 
 332   0.0000       0.195618         5.3230 
 333   0.0000       0.198892         5.4121 
 334   0.0000       0.200024         5.4429 
 335   0.0000       0.200905         5.4669 
 336   0.0000       0.201629         5.4866 
 337   0.0000       0.203130         5.5275 
 338   0.0000       0.204596         5.5673 
 339   0.0000       0.205083         5.5806 
 340   0.0000       0.205558         5.5935 
 341   0.0000       0.206479         5.6186 
 342   0.0000       0.207183         5.6377 
 343   0.0000       0.207570         5.6483 
 344   0.0000       0.208544         5.6748 
 345   0.0000       0.209672         5.7055 
 346   0.0000       0.209927         5.7124 
 347   0.0000       0.211742         5.7618 
 348   0.0000       0.211955         5.7676 
 349   0.0000       0.213120         5.7993 
 350   0.0000       0.213708         5.8153 
 351   0.0000       0.214387         5.8338 
 352   0.0000       0.214848         5.8463 
 353   0.0000       0.215621         5.8673 
 354   0.0000       0.216072         5.8796 
 355   0.0000       0.217721         5.9245 
 356   0.0000       0.218540         5.9468 
 357   0.0000       0.219112         5.9623 
 358   0.0000       0.220225         5.9926 
 359   0.0000       0.220892         6.0108 
 360   0.0000       0.221514         6.0277 
 361   0.0000       0.222156         6.0452 
 362   0.0000       0.223380         6.0785 
 363   0.0000       0.224496         6.1088 
 364   0.0000       0.225216         6.1284 
 365   0.0000       0.227148         6.1810 
 366   0.0000       0.227485         6.1902 
 367   0.0000       0.230348         6.2681 
 368   0.0000       0.230746         6.2789 
 369   0.0000       0.231252         6.2927 
 370   0.0000       0.233395         6.3510 
 371   0.0000       0.234115         6.3706 
 372   0.0000       0.235624         6.4116 
 373   0.0000       0.237015         6.4495 
 374   0.0000       0.237891         6.4733 
 375   0.0000       0.239112         6.5066 
 376   0.0000       0.240172         6.5354 
 377   0.0000       0.241870         6.5816 
 378   0.0000       0.242243         6.5918 
 379   0.0000       0.243661         6.6303 
 380   0.0000       0.244592         6.6557 
 381   0.0000       0.246004         6.6941 
 382   0.0000       0.247320         6.7299 
 383   0.0000       0.249866         6.7992 
 384   0.0000       0.253232         6.8908 
 385   0.0000       0.254721         6.9313 
 386   0.0000       0.256619         6.9830 
 387   0.0000       0.259233         7.0541 
 388   0.0000       0.261787         7.1236 
 389   0.0000       0.264036         7.1848 
 390   0.0000       0.264770         7.2048 
 391   0.0000       0.267683         7.2840 
 392   0.0000       0.269672         7.3381 
 393   0.0000       0.272591         7.4176 
 394   0.0000       0.273767         7.4496 
 395   0.0000       0.274734         7.4759 
 396   0.0000       0.275812         7.5052 
 397   0.0000       0.277840         7.5604 
 398   0.0000       0.278635         7.5820 
 399   0.0000       0.283419         7.7122 
 400   0.0000       0.285852         7.7784 
 401   0.0000       0.288409         7.8480 
 402   0.0000       0.289031         7.8649 
 403   0.0000       0.291152         7.9227 
 404   0.0000       0.294672         8.0184 
 405   0.0000       0.295560         8.0426 
 406   0.0000       0.298589         8.1250 
 407   0.0000       0.299156         8.1405 
 408   0.0000       0.301317         8.1992 
 409   0.0000       0.301811         8.2127 
 410   0.0000       0.304792         8.2938 
 411   0.0000       0.308195         8.3864 
 412   0.0000       0.310272         8.4429 
 413   0.0000       0.312715         8.5094 
 414   0.0000       0.314415         8.5557 
 415   0.0000       0.316611         8.6154 
 416   0.0000       0.320778         8.7288 
 417   0.0000       0.321560         8.7501 
 418   0.0000       0.325552         8.8587 
 419   0.0000       0.327118         8.9013 
 420   0.0000       0.328882         8.9493 
 421   0.0000       0.329975         8.9791 
 422   0.0000       0.331602         9.0233 
 423   0.0000       0.332941         9.0598 
 424   0.0000       0.336165         9.1475 
 425   0.0000       0.338240         9.2040 
 426   0.0000       0.339884         9.2487 
 427   0.0000       0.342108         9.3092 
 428   0.0000       0.344442         9.3727 
 429   0.0000       0.345851         9.4111 
 430   0.0000       0.346272         9.4225 
 431   0.0000       0.350040         9.5251 
 432   0.0000       0.352400         9.5893 
 433   0.0000       0.355365         9.6700 
 434   0.0000       0.357774         9.7355 
 435   0.0000       0.360539         9.8108 
 436   0.0000       0.361808         9.8453 
 437   0.0000       0.364425         9.9165 
 438   0.0000       0.365841         9.9550 
 439   0.0000       0.368148        10.0178 
 440   0.0000       0.370121        10.0715 
 441   0.0000       0.371534        10.1100 
 442   0.0000       0.373898        10.1743 
 443   0.0000       0.377397        10.2695 
 444   0.0000       0.379485        10.3263 
 445   0.0000       0.380041        10.3414 
 446   0.0000       0.382327        10.4036 
 447   0.0000       0.382965        10.4210 
 448   0.0000       0.388927        10.5833 
 449   0.0000       0.391934        10.6651 
 450   0.0000       0.396504        10.7894 
 451   0.0000       0.398464        10.8427 
 452   0.0000       0.399923        10.8825 
 453   0.0000       0.402732        10.9589 
 454   0.0000       0.404492        11.0068 
 455   0.0000       0.408173        11.1069 
 456   0.0000       0.409375        11.1397 
 457   0.0000       0.411618        11.2007 
 458   0.0000       0.413543        11.2531 
 459   0.0000       0.414630        11.2827 
 460   0.0000       0.415730        11.3126 
 461   0.0000       0.417153        11.3513 
 462   0.0000       0.421689        11.4747 
 463   0.0000       0.424146        11.5416 
 464   0.0000       0.427506        11.6330 
 465   0.0000       0.428339        11.6557 
 466   0.0000       0.429607        11.6902 
 467   0.0000       0.432685        11.7739 
 468   0.0000       0.433731        11.8024 
 469   0.0000       0.436011        11.8645 
 470   0.0000       0.436611        11.8808 
 471   0.0000       0.438106        11.9215 
 472   0.0000       0.440849        11.9961 
 473   0.0000       0.445794        12.1307 
 474   0.0000       0.445917        12.1340 
 475   0.0000       0.447585        12.1794 
 476   0.0000       0.448389        12.2013 
 477   0.0000       0.450378        12.2554 
 478   0.0000       0.452385        12.3100 
 479   0.0000       0.454250        12.3608 
 480   0.0000       0.455578        12.3969 
 481   0.0000       0.458558        12.4780 
 482   0.0000       0.459527        12.5044 
 483   0.0000       0.460400        12.5281 
 484   0.0000       0.463129        12.6024 
 485   0.0000       0.464591        12.6422 
 486   0.0000       0.465445        12.6654 
 487   0.0000       0.468582        12.7508 
 488   0.0000       0.469315        12.7707 
 489   0.0000       0.471955        12.8425 
 490   0.0000       0.472411        12.8549 
 491   0.0000       0.474581        12.9140 
 492   0.0000       0.476483        12.9658 
 493   0.0000       0.477679        12.9983 
 494   0.0000       0.477793        13.0014 
 495   0.0000       0.480498        13.0750 
 496   0.0000       0.483268        13.1504 
 497   0.0000       0.484360        13.1801 
 498   0.0000       0.484631        13.1875 
 499   0.0000       0.485304        13.2058 
 500   0.0000       0.488187        13.2842 
 501   0.0000       0.488564        13.2945 
 502   0.0000       0.491286        13.3686 
 503   0.0000       0.493149        13.4193 
 504   0.0000       0.494541        13.4571 
 505   0.0000       0.497701        13.5431 
 506   0.0000       0.499221        13.5845 
 507   0.0000       0.499481        13.5916 
 508   0.0000       0.501969        13.6593 
 509   0.0000       0.503034        13.6883 
 510   0.0000       0.506421        13.7804 
 511   0.0000       0.507714        13.8156 
 512   0.0000       0.509148        13.8546 
 513   0.0000       0.510231        13.8841 
 514   0.0000       0.512969        13.9586 
 515   0.0000       0.515111        14.0169 
 516   0.0000       0.517288        14.0761 
 517   0.0000       0.518719        14.1151 
 518   0.0000       0.520282        14.1576 
 519   0.0000       0.523975        14.2581 
 520   0.0000       0.524842        14.2817 
 521   0.0000       0.526202        14.3187 
 522   0.0000       0.530636        14.4394 
 523   0.0000       0.532088        14.4789 
 524   0.0000       0.533436        14.5155 
 525   0.0000       0.534330        14.5399 
 526   0.0000       0.538450        14.6520 
 527   0.0000       0.539502        14.6806 
 528   0.0000       0.541032        14.7222 
 529   0.0000       0.542908        14.7733 
 530   0.0000       0.544674        14.8213 
 531   0.0000       0.545675        14.8486 
 532   0.0000       0.549334        14.9481 
 533   0.0000       0.550930        14.9916 
 534   0.0000       0.554505        15.0889 
 535   0.0000       0.556600        15.1459 
 536   0.0000       0.558641        15.2014 
 537   0.0000       0.559426        15.2228 
 538   0.0000       0.562182        15.2977 
 539   0.0000       0.563746        15.3403 
 540   0.0000       0.564475        15.3601 
 541   0.0000       0.568279        15.4637 
 542   0.0000       0.571536        15.5523 
 543   0.0000       0.573288        15.6000 
 544   0.0000       0.573741        15.6123 
 545   0.0000       0.576415        15.6851 
 546   0.0000       0.578663        15.7462 
 547   0.0000       0.579143        15.7593 
 548   0.0000       0.584617        15.9082 
 549   0.0000       0.588671        16.0186 
 550   0.0000       0.590663        16.0728 
 551   0.0000       0.591761        16.1026 
 552   0.0000       0.595956        16.2168 
 553   0.0000       0.597133        16.2488 
 554   0.0000       0.597955        16.2712 
 555   0.0000       0.605358        16.4726 
 556   0.0000       0.606101        16.4928 
 557   0.0000       0.608669        16.5627 
 558   0.0000       0.613236        16.6870 
 559   0.0000       0.615225        16.7411 
 560   0.0000       0.617399        16.8003 
 561   0.0000       0.619591        16.8599 
 562   0.0000       0.624664        16.9980 
 563   0.0000       0.626680        17.0528 
 564   0.0000       0.627783        17.0829 
 565   0.0000       0.631780        17.1916 
 566   0.0000       0.632380        17.2079 
 567   0.0000       0.636002        17.3065 
 568   0.0000       0.637517        17.3477 
 569   0.0000       0.638782        17.3821 
 570   0.0000       0.643109        17.4999 
 571   0.0000       0.645539        17.5660 
 572   0.0000       0.648324        17.6418 
 573   0.0000       0.651561        17.7299 
 574   0.0000       0.652844        17.7648 
 575   0.0000       0.654830        17.8188 
 576   0.0000       0.657756        17.8985 
 577   0.0000       0.659517        17.9464 
 578   0.0000       0.660611        17.9761 
 579   0.0000       0.663111        18.0442 
 580   0.0000       0.666222        18.1288 
 581   0.0000       0.667633        18.1672 
 582   0.0000       0.671377        18.2691 
 583   0.0000       0.672216        18.2919 
 584   0.0000       0.674707        18.3597 
 585   0.0000       0.676191        18.4001 
 586   0.0000       0.678734        18.4693 
 587   0.0000       0.680464        18.5164 
 588   0.0000       0.683758        18.6060 
 589   0.0000       0.687253        18.7011 
 590   0.0000       0.688416        18.7327 
 591   0.0000       0.691911        18.8278 
 592   0.0000       0.692562        18.8456 
 593   0.0000       0.695935        18.9374 
 594   0.0000       0.698323        19.0023 
 595   0.0000       0.699894        19.0451 
 596   0.0000       0.701595        19.0914 
 597   0.0000       0.704217        19.1627 
 598   0.0000       0.707288        19.2463 
 599   0.0000       0.711047        19.3486 
 600   0.0000       0.712209        19.3802 
 601   0.0000       0.714200        19.4344 
 602   0.0000       0.718160        19.5421 
 603   0.0000       0.718690        19.5566 
 604   0.0000       0.721112        19.6224 
 605   0.0000       0.723239        19.6803 
 606   0.0000       0.724641        19.7185 
 607   0.0000       0.727522        19.7969 
 608   0.0000       0.728738        19.8300 
 609   0.0000       0.731375        19.9017 
 610   0.0000       0.732851        19.9419 
 611   0.0000       0.734529        19.9876 
 612   0.0000       0.737029        20.0556 
 613   0.0000       0.738062        20.0837 
 614   0.0000       0.741272        20.1710 
 615   0.0000       0.743464        20.2307 
 616   0.0000       0.744478        20.2583 
 617   0.0000       0.746542        20.3144 
 618   0.0000       0.749761        20.4020 
 619   0.0000       0.750651        20.4263 
 620   0.0000       0.751963        20.4620 
 621   0.0000       0.756310        20.5803 
 622   0.0000       0.757522        20.6132 
 623   0.0000       0.759262        20.6606 
 624   0.0000       0.761019        20.7084 
 625   0.0000       0.763072        20.7642 
 626   0.0000       0.764959        20.8156 
 627   0.0000       0.766532        20.8584 
 628   0.0000       0.769038        20.9266 
 629   0.0000       0.774969        21.0880 
 630   0.0000       0.778770        21.1914 
 631   0.0000       0.781240        21.2586 
 632   0.0000       0.782022        21.2799 
 633   0.0000       0.785199        21.3663 
 634   0.0000       0.786240        21.3947 
 635   0.0000       0.789570        21.4853 
 636   0.0000       0.791004        21.5243 
 637   0.0000       0.794247        21.6126 
 638   0.0000       0.796924        21.6854 
 639   0.0000       0.798052        21.7161 
 640   0.0000       0.799456        21.7543 
 641   0.0000       0.806521        21.9465 
 642   0.0000       0.807097        21.9622 
 643   0.0000       0.808450        21.9990 
 644   0.0000       0.809523        22.0282 
 645   0.0000       0.810853        22.0644 
 646   0.0000       0.817253        22.2386 
 647   0.0000       0.819422        22.2976 
 648   0.0000       0.821366        22.3505 
 649   0.0000       0.822416        22.3791 
 650   0.0000       0.823570        22.4105 
 651   0.0000       0.828413        22.5423 
 652   0.0000       0.831212        22.6184 
 653   0.0000       0.834947        22.7201 
 654   0.0000       0.838423        22.8147 
 655   0.0000       0.841404        22.8958 
 656   0.0000       0.841923        22.9099 
 657   0.0000       0.844980        22.9931 
 658   0.0000       0.850303        23.1379 
 659   0.0000       0.858422        23.3589 
 660   0.0000       0.860321        23.4105 
 661   0.0000       0.862972        23.4827 
 662   0.0000       0.864324        23.5195 
 663   0.0000       0.865663        23.5559 
 664   0.0000       0.867816        23.6145 
 665   0.0000       0.872550        23.7433 
 666   0.0000       0.876347        23.8466 
 667   0.0000       0.881906        23.9979 
 668   0.0000       0.884427        24.0665 
 669   0.0000       0.886728        24.1291 
 670   0.0000       0.887682        24.1550 
 671   0.0000       0.891484        24.2585 
 672   0.0000       0.895970        24.3806 
 673   0.0000       0.897276        24.4161 
 674   0.0000       0.902435        24.5565 
 675   0.0000       0.904348        24.6086 
 676   0.0000       0.911945        24.8153 
 677   0.0000       0.913236        24.8504 
 678   0.0000       0.919625        25.0243 
 679   0.0000       0.930124        25.3100 
 680   0.0000       0.983898        26.7732 
 681   0.0000       0.987954        26.8836 
 682   0.0000       0.990342        26.9486 
 683   0.0000       0.992707        27.0129 
 684   0.0000       0.996992        27.1295 
 685   0.0000       0.998097        27.1596 
 686   0.0000       1.001497        27.2521 
 687   0.0000       1.004430        27.3319 
 688   0.0000       1.011059        27.5123 
 689   0.0000       1.015568        27.6350 
 690   0.0000       1.016816        27.6690 
 691   0.0000       1.019678        27.7468 
 692   0.0000       1.027081        27.9483 
 693   0.0000       1.029527        28.0149 
 694   0.0000       1.036653        28.2088 
 695   0.0000       1.037104        28.2210 
 696   0.0000       1.044193        28.4139 
 697   0.0000       1.046184        28.4681 
 698   0.0000       1.049075        28.5468 
 699   0.0000       1.052290        28.6343 
 700   0.0000       1.056480        28.7483 
 701   0.0000       1.060051        28.8455 
 702   0.0000       1.061976        28.8978 
 703   0.0000       1.070031        29.1170 
 704   0.0000       1.074253        29.2319 
 705   0.0000       1.077237        29.3131 
 706   0.0000       1.081852        29.4387 
 707   0.0000       1.086068        29.5534 
 708   0.0000       1.086986        29.5784 
 709   0.0000       1.090742        29.6806 
 710   0.0000       1.093249        29.7488 
 711   0.0000       1.095031        29.7973 
 712   0.0000       1.099776        29.9264 
 713   0.0000       1.105448        30.0808 
 714   0.0000       1.108476        30.1632 
 715   0.0000       1.108968        30.1765 
 716   0.0000       1.128301        30.7026 
 717   0.0000       1.134016        30.8581 
 718   0.0000       1.141706        31.0674 
 719   0.0000       1.164474        31.6870 
 720   0.0000       1.183101        32.1938 
 721   0.0000       1.185858        32.2688 
 722   0.0000       1.194517        32.5045 
 723   0.0000       1.199707        32.6457 
 724   0.0000       1.205749        32.8101 
 725   0.0000       1.209212        32.9043 
 726   0.0000       1.211733        32.9729 
 727   0.0000       1.215038        33.0629 
 728   0.0000       1.225413        33.3452 
 729   0.0000       1.229503        33.4565 
 730   0.0000       1.229913        33.4676 
 731   0.0000       1.232755        33.5450 
 732   0.0000       1.238300        33.6958 
 733   0.0000       1.246529        33.9198 
 734   0.0000       1.249987        34.0139 
 735   0.0000       1.258764        34.2527 
 736   0.0000       1.267032        34.4777 
 737   0.0000       1.268365        34.5140 
 738   0.0000       1.271285        34.5934 
 739   0.0000       1.272981        34.6396 
 740   0.0000       1.278022        34.7767 
 741   0.0000       1.281266        34.8650 
 742   0.0000       1.291251        35.1367 
 743   0.0000       1.295571        35.2543 
 744   0.0000       1.299327        35.3565 
 745   0.0000       1.302695        35.4481 
 746   0.0000       1.303180        35.4613 
 747   0.0000       1.305709        35.5302 
 748   0.0000       1.309142        35.6236 
 749   0.0000       1.310080        35.6491 
 750   0.0000       1.312822        35.7237 
 751   0.0000       1.314616        35.7725 
 752   0.0000       1.316350        35.8197 
 753   0.0000       1.318237        35.8710 
 754   0.0000       1.322746        35.9938 
 755   0.0000       1.323857        36.0240 
 756   0.0000       1.326468        36.0950 
 757   0.0000       1.327615        36.1262 
 758   0.0000       1.328429        36.1484 
 759   0.0000       1.331467        36.2311 
 760   0.0000       1.334121        36.3033 
 761   0.0000       1.334633        36.3172 
 762   0.0000       1.335239        36.3337 
 763   0.0000       1.337812        36.4037 
 764   0.0000       1.340271        36.4706 
 765   0.0000       1.341877        36.5143 
 766   0.0000       1.342825        36.5401 
 767   0.0000       1.345233        36.6057 
 768   0.0000       1.346173        36.6312 
 769   0.0000       1.349660        36.7261 
 770   0.0000       1.350530        36.7498 
 771   0.0000       1.353996        36.8441 
 772   0.0000       1.354325        36.8531 
 773   0.0000       1.354744        36.8645 
 774   0.0000       1.357922        36.9509 
 775   0.0000       1.358845        36.9761 
 776   0.0000       1.359799        37.0020 
 777   0.0000       1.361803        37.0565 
 778   0.0000       1.362922        37.0870 
 779   0.0000       1.363747        37.1094 
 780   0.0000       1.365409        37.1547 
 781   0.0000       1.366478        37.1838 
 782   0.0000       1.368736        37.2452 
 783   0.0000       1.371014        37.3072 
 784   0.0000       1.371500        37.3204 
 785   0.0000       1.372831        37.3566 
 786   0.0000       1.375477        37.4286 
 787   0.0000       1.375953        37.4416 
 788   0.0000       1.377100        37.4728 
 789   0.0000       1.381275        37.5864 
 790   0.0000       1.383560        37.6486 
 791   0.0000       1.386991        37.7419 
 792   0.0000       1.389331        37.8056 
 793   0.0000       1.390147        37.8278 
 794   0.0000       1.393516        37.9195 
 795   0.0000       1.393805        37.9274 
 796   0.0000       1.395644        37.9774 
 797   0.0000       1.400006        38.0961 
 798   0.0000       1.402065        38.1521 
 799   0.0000       1.405644        38.2495 
 800   0.0000       1.407085        38.2887 
 801   0.0000       1.410488        38.3813 
 802   0.0000       1.412614        38.4392 
 803   0.0000       1.416441        38.5433 
 804   0.0000       1.417460        38.5711 
 805   0.0000       1.419875        38.6368 
 806   0.0000       1.420741        38.6603 
 807   0.0000       1.423045        38.7230 
 808   0.0000       1.425725        38.7960 
 809   0.0000       1.427451        38.8429 
 810   0.0000       1.428613        38.8745 
 811   0.0000       1.433989        39.0208 
 812   0.0000       1.437651        39.1205 
 813   0.0000       1.440612        39.2010 
 814   0.0000       1.442172        39.2435 
 815   0.0000       1.446443        39.3597 
 816   0.0000       1.447984        39.4016 
 817   0.0000       1.448676        39.4205 
 818   0.0000       1.453003        39.5382 
 819   0.0000       1.455164        39.5970 
 820   0.0000       1.457624        39.6640 
 821   0.0000       1.458640        39.6916 
 822   0.0000       1.459668        39.7196 
 823   0.0000       1.464738        39.8575 
 824   0.0000       1.464967        39.8638 
 825   0.0000       1.466502        39.9055 
 826   0.0000       1.469131        39.9771 
 827   0.0000       1.471059        40.0296 
 828   0.0000       1.474522        40.1238 
 829   0.0000       1.475489        40.1501 
 830   0.0000       1.479005        40.2458 
 831   0.0000       1.483967        40.3808 
 832   0.0000       1.484700        40.4007 
 833   0.0000       1.485711        40.4283 
 834   0.0000       1.490311        40.5534 
 835   0.0000       1.495729        40.7009 
 836   0.0000       1.497754        40.7560 
 837   0.0000       1.499802        40.8117 
 838   0.0000       1.502482        40.8846 
 839   0.0000       1.505880        40.9771 
 840   0.0000       1.506226        40.9865 
 841   0.0000       1.509434        41.0738 
 842   0.0000       1.509803        41.0838 
 843   0.0000       1.511931        41.1417 
 844   0.0000       1.513577        41.1865 
 845   0.0000       1.519251        41.3409 
 846   0.0000       1.520905        41.3859 
 847   0.0000       1.522668        41.4339 
 848   0.0000       1.525206        41.5030 
 849   0.0000       1.527375        41.5620 
 850   0.0000       1.533934        41.7405 
 851   0.0000       1.534706        41.7615 
 852   0.0000       1.536104        41.7995 
 853   0.0000       1.539526        41.8926 
 854   0.0000       1.540904        41.9301 
 855   0.0000       1.543558        42.0024 
 856   0.0000       1.545052        42.0430 
 857   0.0000       1.549036        42.1514 
 858   0.0000       1.551486        42.2181 
 859   0.0000       1.554637        42.3038 
 860   0.0000       1.559537        42.4372 
 861   0.0000       1.562005        42.5043 
 862   0.0000       1.564218        42.5645 
 863   0.0000       1.569544        42.7095 
 864   0.0000       1.573855        42.8268 
 865   0.0000       1.578055        42.9411 
 866   0.0000       1.580344        43.0033 
 867   0.0000       1.581541        43.0359 
 868   0.0000       1.586423        43.1688 
 869   0.0000       1.588383        43.2221 
 870   0.0000       1.592635        43.3378 
 871   0.0000       1.597820        43.4789 
 872   0.0000       1.601423        43.5769 
 873   0.0000       1.605686        43.6929 
 874   0.0000       1.614894        43.9435 
 875   0.0000       1.622002        44.1369 
 876   0.0000       1.636345        44.5272 
 877   0.0000       1.639286        44.6072 
 878   0.0000       1.647557        44.8323 
 879   0.0000       1.653985        45.0072 
 880   0.0000       1.657640        45.1067 
 881   0.0000       1.664123        45.2831 
 882   0.0000       1.668142        45.3924 
 883   0.0000       1.673946        45.5504 
 884   0.0000       1.677966        45.6598 
 885   0.0000       1.680731        45.7350 
 886   0.0000       1.681556        45.7575 
 887   0.0000       1.684936        45.8494 
 888   0.0000       1.687144        45.9095 
 889   0.0000       1.688690        45.9516 
 890   0.0000       1.693884        46.0929 
 891   0.0000       1.694595        46.1123 
 892   0.0000       1.696729        46.1703 
 893   0.0000       1.699629        46.2493 
 894   0.0000       1.702006        46.3139 
 895   0.0000       1.702601        46.3301 
 896   0.0000       1.704385        46.3787 
 897   0.0000       1.705379        46.4057 
 898   0.0000       1.707360        46.4596 
 899   0.0000       1.707729        46.4697 
 900   0.0000       1.709263        46.5114 
 901   0.0000       1.711620        46.5755 
 902   0.0000       1.713217        46.6190 
 903   0.0000       1.714590        46.6564 
 904   0.0000       1.715353        46.6771 
 905   0.0000       1.717129        46.7255 
 906   0.0000       1.720230        46.8098 
 907   0.0000       1.722360        46.8678 
 908   0.0000       1.723204        46.8908 
 909   0.0000       1.724146        46.9164 
 910   0.0000       1.724561        46.9277 
 911   0.0000       1.726714        46.9863 
 912   0.0000       1.728755        47.0418 
 913   0.0000       1.730739        47.0958 
 914   0.0000       1.733057        47.1589 
 915   0.0000       1.733819        47.1796 
 916   0.0000       1.736028        47.2397 
 917   0.0000       1.738122        47.2967 
 918   0.0000       1.738751        47.3138 
 919   0.0000       1.740481        47.3609 
 920   0.0000       1.741474        47.3879 
 921   0.0000       1.743874        47.4532 
 922   0.0000       1.744780        47.4779 
 923   0.0000       1.747368        47.5483 
 924   0.0000       1.748879        47.5894 
 925   0.0000       1.750793        47.6415 
 926   0.0000       1.752956        47.7003 
 927   0.0000       1.753660        47.7195 
 928   0.0000       1.754424        47.7403 
 929   0.0000       1.757559        47.8256 
 930   0.0000       1.760377        47.9023 
 931   0.0000       1.762107        47.9494 
 932   0.0000       1.765540        48.0428 
 933   0.0000       1.766457        48.0677 
 934   0.0000       1.768037        48.1107 
 935   0.0000       1.770169        48.1687 
 936   0.0000       1.771760        48.2121 
 937   0.0000       1.773475        48.2587 
 938   0.0000       1.773901        48.2703 
 939   0.0000       1.775425        48.3118 
 940   0.0000       1.776746        48.3477 
 941   0.0000       1.778202        48.3873 
 942   0.0000       1.780519        48.4504 
 943   0.0000       1.782514        48.5047 
 944   0.0000       1.783067        48.5197 
 945   0.0000       1.785414        48.5836 
 946   0.0000       1.787292        48.6347 
 947   0.0000       1.787999        48.6539 
 948   0.0000       1.790612        48.7250 
 949   0.0000       1.793999        48.8172 
 950   0.0000       1.795002        48.8445 
 951   0.0000       1.795999        48.8716 
 952   0.0000       1.797959        48.9250 
 953   0.0000       1.800113        48.9836 
 954   0.0000       1.801860        49.0311 
 955   0.0000       1.804526        49.1037 
 956   0.0000       1.807219        49.1769 
 957   0.0000       1.809330        49.2344 
 958   0.0000       1.812222        49.3131 
 959   0.0000       1.812453        49.3193 
 960   0.0000       1.815716        49.4081 
 961   0.0000       1.816644        49.4334 
 962   0.0000       1.818853        49.4935 
 963   0.0000       1.819399        49.5084 
 964   0.0000       1.824407        49.6446 
 965   0.0000       1.825643        49.6783 
 966   0.0000       1.827913        49.7400 
 967   0.0000       1.831306        49.8324 
 968   0.0000       1.831714        49.8435 
 969   0.0000       1.832600        49.8676 
 970   0.0000       1.836372        49.9702 
 971   0.0000       1.839432        50.0535 
 972   0.0000       1.842284        50.1311 
 973   0.0000       1.845107        50.2079 
 974   0.0000       1.846110        50.2352 
 975   0.0000       1.849623        50.3308 
 976   0.0000       1.850923        50.3662 
 977   0.0000       1.853190        50.4279 
 978   0.0000       1.853748        50.4430 
 979   0.0000       1.854856        50.4732 
 980   0.0000       1.857511        50.5454 
 981   0.0000       1.859795        50.6076 
 982   0.0000       1.862663        50.6856 
 983   0.0000       1.863300        50.7030 
 984   0.0000       1.865471        50.7621 
 985   0.0000       1.866911        50.8012 
 986   0.0000       1.868314        50.8394 
 987   0.0000       1.870226        50.8914 
 988   0.0000       1.872095        50.9423 
 989   0.0000       1.876828        51.0711 
 990   0.0000       1.877891        51.1000 
 991   0.0000       1.879801        51.1520 
 992   0.0000       1.880929        51.1827 
 993   0.0000       1.882195        51.2171 
 994   0.0000       1.883684        51.2576 
 995   0.0000       1.885076        51.2955 
 996   0.0000       1.886530        51.3351 
 997   0.0000       1.890537        51.4441 
 998   0.0000       1.891254        51.4636 
 999   0.0000       1.895241        51.5721 
 1000   0.0000       1.895764        51.5864 
 1001   0.0000       1.896636        51.6101 
 1002   0.0000       1.899447        51.6866 
 1003   0.0000       1.901518        51.7429 
 1004   0.0000       1.903482        51.7964 
 1005   0.0000       1.905343        51.8470 
 1006   0.0000       1.907816        51.9143 
 1007   0.0000       1.909296        51.9546 
 1008   0.0000       1.912501        52.0418 
 1009   0.0000       1.914511        52.0965 
 1010   0.0000       1.917007        52.1644 
 1011   0.0000       1.918738        52.2115 
 1012   0.0000       1.920731        52.2658 
 1013   0.0000       1.925633        52.3991 
 1014   0.0000       1.929274        52.4982 
 1015   0.0000       1.929972        52.5172 
 1016   0.0000       1.931541        52.5599 
 1017   0.0000       1.933471        52.6124 
 1018   0.0000       1.935267        52.6613 
 1019   0.0000       1.938235        52.7421 
 1020   0.0000       1.941769        52.8382 
 1021   0.0000       1.943060        52.8734 
 1022   0.0000       1.945921        52.9512 
 1023   0.0000       1.949379        53.0453 
 1024   0.0000       1.951490        53.1027 
 1025   0.0000       1.952003        53.1167 
 1026   0.0000       1.953954        53.1698 
 1027   0.0000       1.957208        53.2583 
 1028   0.0000       1.958429        53.2915 
 1029   0.0000       1.963609        53.4325 
 1030   0.0000       1.965992        53.4974 
 1031   0.0000       1.966771        53.5186 
 1032   0.0000       1.968603        53.5684 
 1033   0.0000       1.976515        53.7837 
 1034   0.0000       1.986191        54.0470 
 1035   0.0000       1.987587        54.0850 
 1036   0.0000       1.993850        54.2554 
 1037   0.0000       1.998605        54.3848 
 1038   0.0000       2.004525        54.5459 
 1039   0.0000       2.009365        54.6776 
 1040   0.0000       2.013081        54.7787 
 1041   0.0000       2.017894        54.9097 
 1042   0.0000       2.021411        55.0054 
 1043   0.0000       2.031634        55.2836 
 1044   0.0000       2.035616        55.3919 
 1045   0.0000       2.040173        55.5159 
 1046   0.0000       2.047330        55.7107 
 1047   0.0000       2.056054        55.9481 
 1048   0.0000       2.059287        56.0361 
 1049   0.0000       2.061929        56.1079 
 1050   0.0000       2.065448        56.2037 
 1051   0.0000       2.065965        56.2178 
 1052   0.0000       2.077583        56.5339 
 1053   0.0000       2.090700        56.8908 
 1054   0.0000       2.097532        57.0767 
 1055   0.0000       2.103234        57.2319 
 1056   0.0000       2.114398        57.5357 
 1057   0.0000       2.118632        57.6509 
 1058   0.0000       2.138342        58.1872 
 1059   0.0000       2.147013        58.4232 
 1060   0.0000       2.201399        59.9031 
 1061   0.0000       2.203123        59.9500 
 1062   0.0000       2.205472        60.0139 
 1063   0.0000       2.211375        60.1746 
 1064   0.0000       2.218129        60.3584 
 1065   0.0000       2.221684        60.4551 
 1066   0.0000       2.224872        60.5418 
 1067   0.0000       2.228384        60.6374 
 1068   0.0000       2.229238        60.6606 
 1069   0.0000       2.231464        60.7212 
 1070   0.0000       2.236295        60.8527 
 1071   0.0000       2.239862        60.9498 
 1072   0.0000       2.241935        61.0062 
 1073   0.0000       2.242580        61.0237 
 1074   0.0000       2.248245        61.1779 
 1075   0.0000       2.249598        61.2147 
 1076   0.0000       2.252037        61.2810 
 1077   0.0000       2.254826        61.3569 
 1078   0.0000       2.255102        61.3644 
 1079   0.0000       2.256742        61.4091 
 1080   0.0000       2.257914        61.4410 
 1081   0.0000       2.258717        61.4628 
 1082   0.0000       2.260301        61.5059 
 1083   0.0000       2.261225        61.5311 
 1084   0.0000       2.265937        61.6593 
 1085   0.0000       2.266850        61.6841 
 1086   0.0000       2.267765        61.7090 
 1087   0.0000       2.271303        61.8053 
 1088   0.0000       2.272718        61.8438 
 1089   0.0000       2.273808        61.8735 
 1090   0.0000       2.274635        61.8960 
 1091   0.0000       2.277809        61.9823 
 1092   0.0000       2.278947        62.0133 
 1093   0.0000       2.281882        62.0932 
 1094   0.0000       2.282914        62.1213 
 1095   0.0000       2.284133        62.1544 
 1096   0.0000       2.285790        62.1995 
 1097   0.0000       2.287150        62.2365 
 1098   0.0000       2.288926        62.2848 
 1099   0.0000       2.291588        62.3573 
 1100   0.0000       2.291889        62.3655 
 1101   0.0000       2.293739        62.4158 
 1102   0.0000       2.295772        62.4711 
 1103   0.0000       2.299037        62.5600 
 1104   0.0000       2.303036        62.6688 
 1105   0.0000       2.303313        62.6763 
 1106   0.0000       2.306340        62.7587 
 1107   0.0000       2.310036        62.8593 
 1108   0.0000       2.310428        62.8699 
 1109   0.0000       2.314173        62.9718 
 1110   0.0000       2.316439        63.0335 
 1111   0.0000       2.318054        63.0775 
 1112   0.0000       2.322569        63.2003 
 1113   0.0000       2.327389        63.3315 
 1114   0.0000       2.331028        63.4305 
 1115   0.0000       2.332084        63.4592 
 1116   0.0000       2.333809        63.5062 
 1117   0.0000       2.343345        63.7657 
 1118   0.0000       2.343820        63.7786 
 1119   0.0000       2.345689        63.8295 
 1120   0.0000       2.347035        63.8661 
 1121   0.0000       2.351294        63.9820 
 1122   0.0000       2.355659        64.1007 
 1123   0.0000       2.358556        64.1796 
 1124   0.0000       2.361200        64.2515 
 1125   0.0000       2.366517        64.3962 
 1126   0.0000       2.369113        64.4668 
 1127   0.0000       2.371020        64.5187 
 1128   0.0000       2.373743        64.5928 
 1129   0.0000       2.376048        64.6555 
 1130   0.0000       2.379259        64.7429 
 1131   0.0000       2.379955        64.7619 
 1132   0.0000       2.382892        64.8418 
 1133   0.0000       2.386097        64.9290 
 1134   0.0000       2.391370        65.0725 
 1135   0.0000       2.393678        65.1353 
 1136   0.0000       2.395018        65.1718 
 1137   0.0000       2.397986        65.2525 
 1138   0.0000       2.400323        65.3161 
 1139   0.0000       2.402727        65.3815 
 1140   0.0000       2.406053        65.4720 
 1141   0.0000       2.408733        65.5449 
 1142   0.0000       2.410873        65.6032 
 1143   0.0000       2.412469        65.6466 
 1144   0.0000       2.413866        65.6846 
 1145   0.0000       2.415712        65.7349 
 1146   0.0000       2.417632        65.7871 
 1147   0.0000       2.418859        65.8205 
 1148   0.0000       2.421544        65.8936 
 1149   0.0000       2.422873        65.9297 
 1150   0.0000       2.424000        65.9604 
 1151   0.0000       2.424855        65.9837 
 1152   0.0000       2.425804        66.0095 
 1153   0.0000       2.428772        66.0903 
 1154   0.0000       2.429595        66.1126 
 1155   0.0000       2.431346        66.1603 
 1156   0.0000       2.434645        66.2501 
 1157   0.0000       2.435203        66.2653 
 1158   0.0000       2.437376        66.3244 
 1159   0.0000       2.438815        66.3635 
 1160   0.0000       2.439440        66.3805 
 1161   0.0000       2.440395        66.4065 
 1162   0.0000       2.443648        66.4950 
 1163   0.0000       2.443974        66.5039 
 1164   0.0000       2.445524        66.5461 
 1165   0.0000       2.446647        66.5767 
 1166   0.0000       2.448010        66.6137 
 1167   0.0000       2.449876        66.6645 
 1168   0.0000       2.451056        66.6966 
 1169   0.0000       2.453332        66.7585 
 1170   0.0000       2.454279        66.7843 
 1171   0.0000       2.456176        66.8359 
 1172   0.0000       2.458626        66.9026 
 1173   0.0000       2.460639        66.9574 
 1174   0.0000       2.462485        67.0076 
 1175   0.0000       2.465428        67.0877 
 1176   0.0000       2.467655        67.1483 
 1177   0.0000       2.468548        67.1726 
 1178   0.0000       2.471424        67.2509 
 1179   0.0000       2.473544        67.3085 
 1180   0.0000       2.477326        67.4115 
 1181   0.0000       2.480795        67.5059 
 1182   0.0000       2.482481        67.5517 
 1183   0.0000       2.483022        67.5665 
 1184   0.0000       2.486075        67.6495 
 1185   0.0000       2.489667        67.7473 
 1186   0.0000       2.491679        67.8020 
 1187   0.0000       2.494768        67.8861 
 1188   0.0000       2.495500        67.9060 
 1189   0.0000       2.498285        67.9818 
 1190   0.0000       2.500007        68.0287 
 1191   0.0000       2.504641        68.1548 
 1192   0.0000       2.506220        68.1977 
 1193   0.0000       2.508535        68.2607 
 1194   0.0000       2.510388        68.3111 
 1195   0.0000       2.514938        68.4349 
 1196   0.0000       2.517634        68.5083 
 1197   0.0000       2.518955        68.5442 
 1198   0.0000       2.522899        68.6516 
 1199   0.0000       2.523763        68.6751 
 1200   0.0000       2.524587        68.6975 
 1201   0.0000       2.528639        68.8078 
 1202   0.0000       2.529697        68.8366 
 1203   0.0000       2.531671        68.8903 
 1204   0.0000       2.533908        68.9511 
 1205   0.0000       2.535335        68.9900 
 1206   0.0000       2.539886        69.1138 
 1207   0.0000       2.543231        69.2048 
 1208   0.0000       2.546207        69.2858 
 1209   0.0000       2.547539        69.3221 
 1210   0.0000       2.553319        69.4793 
 1211   0.0000       2.555563        69.5404 
 1212   0.0000       2.558400        69.6176 
 1213   0.0000       2.561483        69.7015 
 1214   0.0000       2.566150        69.8285 
 1215   0.0000       2.569596        69.9223 
 1216   0.0000       2.570121        69.9366 
 1217   0.0000       2.572863        70.0112 
 1218   0.0000       2.577071        70.1257 
 1219   0.0000       2.583205        70.2926 
 1220   0.0000       2.586424        70.3802 
 1221   0.0000       2.599546        70.7372 
 1222   0.0000       2.603092        70.8337 
 1223   0.0000       2.607520        70.9542 
 1224   0.0000       2.609926        71.0197 
 1225   0.0000       2.615208        71.1634 
 1226   0.0000       2.624424        71.4142 
 1227   0.0000       2.628640        71.5289 
 1228   0.0000       2.631305        71.6014 
 1229   0.0000       2.634206        71.6804 
 1230   0.0000       2.636625        71.7462 
 1231   0.0000       2.640243        71.8447 
 1232   0.0000       2.643834        71.9424 
 1233   0.0000       2.648891        72.0800 
 1234   0.0000       2.651438        72.1493 
 1235   0.0000       2.652212        72.1704 
 1236   0.0000       2.654637        72.2363 
 1237   0.0000       2.655557        72.2614 
 1238   0.0000       2.659641        72.3725 
 1239   0.0000       2.661058        72.4111 
 1240   0.0000       2.663385        72.4744 
 1241   0.0000       2.665814        72.5405 
 1242   0.0000       2.667426        72.5844 
 1243   0.0000       2.669040        72.6283 
 1244   0.0000       2.669968        72.6535 
 1245   0.0000       2.671385        72.6921 
 1246   0.0000       2.674773        72.7843 
 1247   0.0000       2.676328        72.8266 
 1248   0.0000       2.677936        72.8703 
 1249   0.0000       2.678931        72.8974 
 1250   0.0000       2.680086        72.9289 
 1251   0.0000       2.683125        73.0115 
 1252   0.0000       2.685191        73.0678 
 1253   0.0000       2.687304        73.1253 
 1254   0.0000       2.689744        73.1917 
 1255   0.0000       2.693777        73.3014 
 1256   0.0000       2.693965        73.3065 
 1257   0.0000       2.697195        73.3944 
 1258   0.0000       2.698415        73.4276 
 1259   0.0000       2.701777        73.5191 
 1260   0.0000       2.702818        73.5474 
 1261   0.0000       2.704467        73.5923 
 1262   0.0000       2.707895        73.6856 
 1263   0.0000       2.709560        73.7309 
 1264   0.0000       2.710559        73.7581 
 1265   0.0000       2.713404        73.8355 
 1266   0.0000       2.714441        73.8637 
 1267   0.0000       2.716888        73.9303 
 1268   0.0000       2.719277        73.9953 
 1269   0.0000       2.720360        74.0248 
 1270   0.0000       2.722276        74.0769 
 1271   0.0000       2.726222        74.1843 
 1272   0.0000       2.726886        74.2023 
 1273   0.0000       2.728458        74.2451 
 1274   0.0000       2.728719        74.2522 
 1275   0.0000       2.730831        74.3097 
 1276   0.0000       2.733666        74.3868 
 1277   0.0000       2.735468        74.4359 
 1278   0.0000       2.736200        74.4558 
 1279   0.0000       2.738199        74.5102 
 1280   0.0000       2.741766        74.6072 
 1281   0.0000       2.743449        74.6530 
 1282   0.0000       2.746160        74.7268 
 1283   0.0000       2.748040        74.7780 
 1284   0.0000       2.750336        74.8404 
 1285   0.0000       2.753188        74.9181 
 1286   0.0000       2.754430        74.9518 
 1287   0.0000       2.756565        75.0099 
 1288   0.0000       2.758728        75.0688 
 1289   0.0000       2.762760        75.1785 
 1290   0.0000       2.767839        75.3167 
 1291   0.0000       2.771021        75.4033 
 1292   0.0000       2.775811        75.5337 
 1293   0.0000       2.778154        75.5974 
 1294   0.0000       2.781842        75.6978 
 1295   0.0000       2.784236        75.7629 
 1296   0.0000       2.786832        75.8336 
 1297   0.0000       2.787574        75.8537 
 1298   0.0000       2.789403        75.9035 
 1299   0.0000       2.789583        75.9084 
 1300   0.0000       2.790273        75.9272 
 1301   0.0000       2.792063        75.9759 
 1302   0.0000       2.793834        76.0241 
 1303   0.0000       2.795314        76.0644 
 1304   0.0000       2.796006        76.0832 
 1305   0.0000       2.798498        76.1510 
 1306   0.0000       2.799481        76.1778 
 1307   0.0000       2.801444        76.2312 
 1308   0.0000       2.802745        76.2666 
 1309   0.0000       2.804490        76.3140 
 1310   0.0000       2.806533        76.3697 
 1311   0.0000       2.808424        76.4211 
 1312   0.0000       2.809854        76.4600 
 1313   0.0000       2.811314        76.4997 
 1314   0.0000       2.812020        76.5189 
 1315   0.0000       2.814971        76.5992 
 1316   0.0000       2.817850        76.6776 
 1317   0.0000       2.818283        76.6894 
 1318   0.0000       2.823732        76.8377 
 1319   0.0000       2.826597        76.9156 
 1320   0.0000       2.827019        76.9271 
 1321   0.0000       2.833719        77.1094 
 1322   0.0000       2.836589        77.1875 
 1323   0.0000       2.843592        77.3781 
 1324   0.0000       2.843788        77.3834 
 1325   0.0000       2.846219        77.4496 
 1326   0.0000       2.849658        77.5431 
 1327   0.0000       2.853685        77.6527 
 1328   0.0000       2.855971        77.7149 
 1329   0.0000       2.858552        77.7852 
 1330   0.0000       2.866405        77.9988 
 1331   0.0000       2.870392        78.1073 
 1332   0.0000       2.871714        78.1433 
 1333   0.0000       2.883227        78.4566 
 1334   0.0000       2.890187        78.6460 
 1335   0.0000       2.894384        78.7602 
 1336   0.0000       2.916972        79.3748 
 1337   0.0000       2.922705        79.5309 
 1338   0.0000       2.936208        79.8983 
 1339   0.0000       2.944647        80.1279 
 1340   0.0000       3.160314        85.9965 
 1341   0.0000       3.160445        86.0001 
 1342   0.0000       3.170443        86.2721 
 1343   0.0000       3.171976        86.3138 
 1344   0.0000       3.177056        86.4521 
 1345   0.0000       3.183844        86.6368 
 1346   0.0000       3.187202        86.7282 
 1347   0.0000       3.188383        86.7603 
 1348   0.0000       3.190850        86.8275 
 1349   0.0000       3.191976        86.8581 
 1350   0.0000       3.192514        86.8727 
 1351   0.0000       3.197889        87.0190 
 1352   0.0000       3.199984        87.0760 
 1353   0.0000       3.202936        87.1563 
 1354   0.0000       3.212592        87.4191 
 1355   0.0000       3.215767        87.5055 
 1356   0.0000       3.221670        87.6661 
 1357   0.0000       3.234332        88.0107 
 1358   0.0000       3.237681        88.1018 
 1359   0.0000       3.254553        88.5609 
 1360   0.0000       3.337952        90.8303 
 1361   0.0000       3.337969        90.8308 
 1362   0.0000       3.342765        90.9613 
 1363   0.0000       3.343629        90.9848 
 1364   0.0000       3.344992        91.0219 
 1365   0.0000       3.345964        91.0483 
 1366   0.0000       3.346242        91.0559 
 1367   0.0000       3.347020        91.0771 
 1368   0.0000       3.348888        91.1279 
 1369   0.0000       3.349242        91.1375 
 1370   0.0000       3.350172        91.1628 
 1371   0.0000       3.350608        91.1747 
 1372   0.0000       3.352927        91.2378 
 1373   0.0000       3.353298        91.2479 
 1374   0.0000       3.353761        91.2605 
 1375   0.0000       3.354700        91.2860 
 1376   0.0000       3.355323        91.3030 
 1377   0.0000       3.356086        91.3237 
 1378   0.0000       3.356991        91.3484 
 1379   0.0000       3.357594        91.3648 
 1380   0.0000       3.358160        91.3802 
 1381   0.0000       3.359487        91.4163 
 1382   0.0000       3.360329        91.4392 
 1383   0.0000       3.360356        91.4399 
 1384   0.0000       3.363389        91.5225 
 1385   0.0000       3.363932        91.5372 
 1386   0.0000       3.364759        91.5598 
 1387   0.0000       3.365189        91.5714 
 1388   0.0000       3.365242        91.5729 
 1389   0.0000       3.368260        91.6550 
 1390   0.0000       3.368478        91.6610 
 1391   0.0000       3.369164        91.6796 
 1392   0.0000       3.370736        91.7224 
 1393   0.0000       3.371067        91.7314 
 1394   0.0000       3.374415        91.8225 
 1395   0.0000       3.375603        91.8548 
 1396   0.0000       3.376011        91.8659 
 1397   0.0000       3.379096        91.9499 
 1398   0.0000       3.382917        92.0538 
 1399   0.0000       3.389650        92.2371 
 1400   0.0000       3.510579        95.5277 
 1401   0.0000       3.510731        95.5318 
 1402   0.0000       3.511763        95.5599 
 1403   0.0000       3.532781        96.1319 
 1404   0.0000       3.539514        96.3151 
 1405   0.0000       3.546321        96.5003 
 1406   0.0000       3.547568        96.5342 
 1407   0.0000       3.550098        96.6031 
 1408   0.0000       3.554372        96.7194 
 1409   0.0000       3.559202        96.8508 
 1410   0.0000       3.562214        96.9328 
 1411   0.0000       3.563269        96.9615 
 1412   0.0000       3.566138        97.0396 
 1413   0.0000       3.569159        97.1218 
 1414   0.0000       3.570983        97.1714 
 1415   0.0000       3.582623        97.4881 
 1416   0.0000       3.587062        97.6089 
 1417   0.0000       3.591239        97.7226 
 1418   0.0000       3.593682        97.7890 
 1419   0.0000       3.598379        97.9169 
 1420   0.0000       3.601541        98.0029 
 1421   0.0000       3.605322        98.1058 
 1422   0.0000       3.614150        98.3460 
 1423   0.0000       3.616742        98.4166 
 1424   0.0000       3.617583        98.4394 
 1425   0.0000       3.621868        98.5560 
 1426   0.0000       3.623657        98.6047 
 1427   0.0000       3.623929        98.6121 
 1428   0.0000       3.636228        98.9468 
 1429   0.0000       3.640112        99.0525 
 1430   0.0000       3.643801        99.1529 
 1431   0.0000       3.649982        99.3211 
 1432   0.0000       3.651146        99.3527 
 1433   0.0000       3.653203        99.4087 
 1434   0.0000       3.658422        99.5507 
 1435   0.0000       3.671808        99.9150 
 1436   0.0000       3.673191        99.9526 
 1437   0.0000       3.679322       100.1194 
 1438   0.0000       3.680324       100.1467 
 1439   0.0000       3.680818       100.1601 
 1440   0.0000       3.685431       100.2857 
 1441   0.0000       3.690050       100.4114 
 1442   0.0000       3.692339       100.4737 
 1443   0.0000       3.693777       100.5128 
 1444   0.0000       3.695276       100.5536 
 1445   0.0000       3.698404       100.6387 
 1446   0.0000       3.698790       100.6492 
 1447   0.0000       3.700517       100.6962 
 1448   0.0000       3.705087       100.8205 
 1449   0.0000       3.710036       100.9552 
 1450   0.0000       3.710683       100.9728 
 1451   0.0000       3.713310       101.0443 
 1452   0.0000       3.714616       101.0798 
 1453   0.0000       3.722295       101.2888 
 1454   0.0000       3.727916       101.4417 
 1455   0.0000       3.751717       102.0894 
 1456   0.0000       3.758385       102.2709 
 1457   0.0000       3.773066       102.6704 
 1458   0.0000       3.782216       102.9193 
 1459   0.0000       3.790472       103.1440 
 1460   0.0000       4.240633       115.3935 
 1461   0.0000       4.241722       115.4231 
 1462   0.0000       4.242429       115.4424 
 1463   0.0000       4.244572       115.5007 
 1464   0.0000       4.245192       115.5176 
 1465   0.0000       4.247698       115.5857 
 1466   0.0000       4.248184       115.5990 
 1467   0.0000       4.249404       115.6322 
 1468   0.0000       4.249885       115.6452 
 1469   0.0000       4.251492       115.6890 
 1470   0.0000       4.252151       115.7069 
 1471   0.0000       4.253203       115.7355 
 1472   0.0000       4.255398       115.7953 
 1473   0.0000       4.256832       115.8343 
 1474   0.0000       4.259794       115.9149 
 1475   0.0000       4.261577       115.9634 
 1476   0.0000       4.263132       116.0057 
 1477   0.0000       4.267603       116.1274 
 1478   0.0000       4.276450       116.3681 
 1479   0.0000       4.280092       116.4672 
 1480   0.0000      21.861543       594.8828 
 1481   0.0000      21.879961       595.3840 
 1482   0.0000      21.885575       595.5368 
 1483   0.0000      21.889495       595.6435 
 1484   0.0000      21.899560       595.9173 
 1485   0.0000      21.911846       596.2516 
 1486   0.0000      21.917206       596.3975 
 1487   0.0000      21.925496       596.6231 
 1488   0.0000      21.930404       596.7566 
 1489   0.0000      21.936516       596.9229 
 1490   0.0000      21.942915       597.0971 
 1491   0.0000      21.943619       597.1162 
 1492   0.0000      21.947747       597.2286 
 1493   0.0000      21.953895       597.3959 
 1494   0.0000      21.960698       597.5810 
 1495   0.0000      21.971116       597.8645 
 1496   0.0000      21.977592       598.0407 
 1497   0.0000      21.989822       598.3735 
 1498   0.0000      22.025792       599.3523 
 1499   0.0000      22.053307       600.1010 
 1500   0.0000      22.305554       606.9650 
 1501   0.0000      22.315294       607.2300 
 1502   0.0000      22.320166       607.3626 
 1503   0.0000      22.337169       607.8253 
 1504   0.0000      22.343513       607.9979 
 1505   0.0000      22.347747       608.1131 
 1506   0.0000      22.358784       608.4134 
 1507   0.0000      22.364926       608.5806 
 1508   0.0000      22.366570       608.6253 
 1509   0.0000      22.377003       608.9092 
 1510   0.0000      22.380828       609.0133 
 1511   0.0000      22.386052       609.1554 
 1512   0.0000      22.392412       609.3285 
 1513   0.0000      22.400772       609.5560 
 1514   0.0000      22.404950       609.6697 
 1515   0.0000      22.414832       609.9386 
 1516   0.0000      22.423345       610.1702 
 1517   0.0000      22.424955       610.2140 
 1518   0.0000      22.440270       610.6308 
 1519   0.0000      22.498130       612.2052 
 1520   0.0000      31.901054       868.0718 
 1521   0.0000      31.909796       868.3097 
 1522   0.0000      31.918237       868.5394 
 1523   0.0000      31.926427       868.7623 
 1524   0.0000      31.927616       868.7946 
 1525   0.0000      31.928991       868.8320 
 1526   0.0000      31.933023       868.9417 
 1527   0.0000      31.942348       869.1955 
 1528   0.0000      31.943850       869.2363 
 1529   0.0000      31.949041       869.3776 
 1530   0.0000      31.957802       869.6160 
 1531   0.0000      31.961209       869.7087 
 1532   0.0000      31.965749       869.8323 
 1533   0.0000      31.976224       870.1173 
 1534   0.0000      31.991199       870.5248 
 1535   0.0000      32.001634       870.8087 
 1536   0.0000      32.008408       870.9931 
 1537   0.0000      32.011607       871.0801 
 1538   0.0000      32.072080       872.7257 
 1539   0.0000      32.106036       873.6497 

                    ********************************
                    * MULLIKEN POPULATION ANALYSIS *
                    ********************************

-----------------------
MULLIKEN ATOMIC CHARGES
-----------------------
   0 C :   -0.634107
   1 C :    0.356263
   2 N :   -0.393310
   3 H :    0.214612
   4 H :    0.225896
   5 H :    0.228340
   6 C :   -0.631228
   7 C :    0.371427
   8 N :   -0.401331
   9 H :    0.223050
  10 H :    0.210163
  11 H :    0.227680
  12 C :   -0.620318
  13 C :    0.381006
  14 N :   -0.409658
  15 H :    0.213135
  16 H :    0.225204
  17 H :    0.226308
  18 C :   -0.583023
  19 C :    0.312952
  20 N :   -0.388796
  21 H :    0.224242
  22 H :    0.213395
  23 H :    0.215379
  24 C :   -0.645155
  25 C :    0.378853
  26 N :   -0.405465
  27 H :    0.232659
  28 H :    0.212700
  29 H :    0.231457
  30 C :   -0.607676
  31 C :    0.323108
  32 N :   -0.387191
  33 H :    0.226920
  34 H :    0.230938
  35 H :    0.208949
  36 C :   -0.593575
  37 C :    0.331395
  38 N :   -0.384254
  39 H :    0.211120
  40 H :    0.210769
  41 H :    0.230316
  42 C :   -0.627705
  43 C :    0.373471
  44 N :   -0.398057
  45 H :    0.210433
  46 H :    0.230376
  47 H :    0.217019
  48 C :   -0.603288
  49 C :    0.341561
  50 N :   -0.394197
  51 H :    0.223132
  52 H :    0.209475
  53 H :    0.223800
  54 C :   -0.608842
  55 C :    0.327352
  56 N :   -0.384516
  57 H :    0.220939
  58 H :    0.232235
  59 H :    0.209459
  60 C :   -0.607796
  61 C :    0.305849
  62 N :   -0.391032
  63 H :    0.233408
  64 H :    0.234674
  65 H :    0.211126
  66 C :   -0.590874
  67 C :    0.305290
  68 N :   -0.381440
  69 H :    0.225949
  70 H :    0.209520
  71 H :    0.221102
  72 C :   -0.616115
  73 C :    0.363299
  74 N :   -0.395570
  75 H :    0.213143
  76 H :    0.210090
  77 H :    0.233109
  78 C :   -0.614527
  79 C :    0.336912
  80 N :   -0.387062
  81 H :    0.222606
  82 H :    0.212001
  83 H :    0.220931
  84 C :   -0.598902
  85 C :    0.344025
  86 N :   -0.395127
  87 H :    0.210587
  88 H :    0.211192
  89 H :    0.231371
  90 C :   -0.597272
  91 C :    0.340082
  92 N :   -0.386870
  93 H :    0.211573
  94 H :    0.211924
  95 H :    0.226041
  96 C :   -0.612197
  97 C :    0.342304
  98 N :   -0.392160
  99 H :    0.219066
 100 H :    0.210085
 101 H :    0.231051
 102 C :   -0.616845
 103 C :    0.342616
 104 N :   -0.385411
 105 H :    0.224488
 106 H :    0.227570
 107 H :    0.210107
 108 C :   -0.592968
 109 C :    0.319431
 110 N :   -0.387077
 111 H :    0.225059
 112 H :    0.209181
 113 H :    0.224032
 114 C :   -0.609003
 115 C :    0.340184
 116 N :   -0.380279
 117 H :    0.225367
 118 H :    0.209322
 119 H :    0.217064
Sum of atomic charges:   -0.0000000

--------------------------------
MULLIKEN REDUCED ORBITAL CHARGES
--------------------------------
  0 C s       :     3.470844  s :     3.470844
      pz      :     0.902978  p :     3.135279
      px      :     1.117305
      py      :     1.114996
      dz2     :     0.011090  d :     0.027984
      dxz     :     0.003428
      dyz     :     0.005840
      dx2y2   :     0.003073
      dxy     :     0.004554
  1 C s       :     3.104975  s :     3.104975
      pz      :     0.765202  p :     2.482578
      px      :     0.863658
      py      :     0.853717
      dz2     :     0.016763  d :     0.056185
      dxz     :     0.018777
      dyz     :     0.018818
      dx2y2   :     0.000668
      dxy     :     0.001158
  2 N s       :     3.718880  s :     3.718880
      pz      :     1.314535  p :     3.634907
      px      :     1.158376
      py      :     1.161995
      dz2     :     0.006363  d :     0.039524
      dxz     :     0.016341
      dyz     :     0.013899
      dx2y2   :     0.001734
      dxy     :     0.001188
  3 H s       :     0.766483  s :     0.766483
      pz      :     0.003607  p :     0.018905
      px      :     0.009713
      py      :     0.005585
  4 H s       :     0.753913  s :     0.753913
      pz      :     0.003659  p :     0.020190
      px      :     0.009553
      py      :     0.006977
  5 H s       :     0.752097  s :     0.752097
      pz      :     0.005879  p :     0.019563
      px      :     0.003554
      py      :     0.010130
  6 C s       :     3.489128  s :     3.489128
      pz      :     1.029133  p :     3.114091
      px      :     1.101504
      py      :     0.983453
      dz2     :     0.005323  d :     0.028010
      dxz     :     0.003630
      dyz     :     0.008010
      dx2y2   :     0.006631
      dxy     :     0.004416
  7 C s       :     3.110680  s :     3.110680
      pz      :     0.819957  p :     2.461760
      px      :     0.844935
      py      :     0.796867
      dz2     :     0.013600  d :     0.056133
      dxz     :     0.007257
      dyz     :     0.011973
      dx2y2   :     0.012042
      dxy     :     0.011262
  8 N s       :     3.752614  s :     3.752614
      pz      :     1.207021  p :     3.608848
      px      :     1.167732
      py      :     1.234095
      dz2     :     0.012182  d :     0.039868
      dxz     :     0.005571
      dyz     :     0.005697
      dx2y2   :     0.007750
      dxy     :     0.008669
  9 H s       :     0.757192  s :     0.757192
      pz      :     0.004518  p :     0.019758
      px      :     0.004477
      py      :     0.010763
 10 H s       :     0.770765  s :     0.770765
      pz      :     0.011348  p :     0.019072
      px      :     0.004396
      py      :     0.003328
 11 H s       :     0.752460  s :     0.752460
      pz      :     0.003296  p :     0.019859
      px      :     0.013339
      py      :     0.003224
 12 C s       :     3.451274  s :     3.451274
      pz      :     1.117605  p :     3.140969
      px      :     0.959296
      py      :     1.064069
      dz2     :     0.006371  d :     0.028075
      dxz     :     0.004291
      dyz     :     0.003245
      dx2y2   :     0.005861
      dxy     :     0.008307
 13 C s       :     3.107945  s :     3.107945
      pz      :     0.857382  p :     2.455258
      px      :     0.777746
      py      :     0.820131
      dz2     :     0.004496  d :     0.055791
      dxz     :     0.014225
      dyz     :     0.005226
      dx2y2   :     0.018189
      dxy     :     0.013655
 14 N s       :     3.750307  s :     3.750307
      pz      :     1.157422  p :     3.617915
      px      :     1.264889
      py      :     1.195604
      dz2     :     0.002032  d :     0.041435
      dxz     :     0.011897
      dyz     :     0.004725
      dx2y2   :     0.016485
      dxy     :     0.006295
 15 H s       :     0.768408  s :     0.768408
      pz      :     0.011218  p :     0.018457
      px      :     0.003771
      py      :     0.003468
 16 H s       :     0.755682  s :     0.755682
      pz      :     0.004764  p :     0.019114
      px      :     0.003097
      py      :     0.011253
 17 H s       :     0.754280  s :     0.754280
      pz      :     0.005823  p :     0.019411
      px      :     0.008662
      py      :     0.004926
 18 C s       :     3.423203  s :     3.423203
      pz      :     1.004262  p :     3.131825
      px      :     1.022777
      py      :     1.104786
      dz2     :     0.004886  d :     0.027996
      dxz     :     0.009368
      dyz     :     0.004102
      dx2y2   :     0.003194
      dxy     :     0.006446
 19 C s       :     3.127767  s :     3.127767
      pz      :     0.816950  p :     2.503442
      px      :     0.824364
      py      :     0.862128
      dz2     :     0.015675  d :     0.055838
      dxz     :     0.011920
      dyz     :     0.009762
      dx2y2   :     0.008809
      dxy     :     0.009672
 20 N s       :     3.706337  s :     3.706337
      pz      :     1.233251  p :     3.643645
      px      :     1.234163
      py      :     1.176232
      dz2     :     0.012900  d :     0.038814
      dxz     :     0.003426
      dyz     :     0.008216
      dx2y2   :     0.006836
      dxy     :     0.007436
 21 H s       :     0.755674  s :     0.755674
      pz      :     0.003667  p :     0.020083
      px      :     0.007473
      py      :     0.008943
 22 H s       :     0.767806  s :     0.767806
      pz      :     0.004006  p :     0.018798
      px      :     0.005759
      py      :     0.009032
 23 H s       :     0.765500  s :     0.765500
      pz      :     0.010117  p :     0.019121
      px      :     0.004920
      py      :     0.004084
 24 C s       :     3.484673  s :     3.484673
      pz      :     0.893044  p :     3.132423
      px      :     1.118153
      py      :     1.121227
      dz2     :     0.010668  d :     0.028059
      dxz     :     0.005413
      dyz     :     0.004295
      dx2y2   :     0.004471
      dxy     :     0.003213
 25 C s       :     3.127934  s :     3.127934
      pz      :     0.713116  p :     2.436873
      px      :     0.860265
      py      :     0.863493
      dz2     :     0.016827  d :     0.056340
      dxz     :     0.018546
      dyz     :     0.018482
      dx2y2   :     0.001480
      dxy     :     0.001004
 26 N s       :     3.741779  s :     3.741779
      pz      :     1.285459  p :     3.621942
      px      :     1.167440
      py      :     1.169043
      dz2     :     0.004517  d :     0.041744
      dxz     :     0.017117
      dyz     :     0.016299
      dx2y2   :     0.002025
      dxy     :     0.001787
 27 H s       :     0.747616  s :     0.747616
      pz      :     0.003376  p :     0.019725
      px      :     0.011666
      py      :     0.004683
 28 H s       :     0.768806  s :     0.768806
      pz      :     0.005901  p :     0.018494
      px      :     0.007451
      py      :     0.005142
 29 H s       :     0.748524  s :     0.748524
      pz      :     0.003400  p :     0.020019
      px      :     0.003477
      py      :     0.013142
 30 C s       :     3.447175  s :     3.447175
      pz      :     1.123499  p :     3.132575
      px      :     1.042221
      py      :     0.966855
      dz2     :     0.005835  d :     0.027926
      dxz     :     0.005644
      dyz     :     0.002386
      dx2y2   :     0.004267
      dxy     :     0.009794
 31 C s       :     3.124683  s :     3.124683
      pz      :     0.864288  p :     2.496071
      px      :     0.821199
      py      :     0.810584
      dz2     :     0.004273  d :     0.056139
      dxz     :     0.007516
      dyz     :     0.012342
      dx2y2   :     0.018970
      dxy     :     0.013038
 32 N s       :     3.693942  s :     3.693942
      pz      :     1.159848  p :     3.652555
      px      :     1.207374
      py      :     1.285333
      dz2     :     0.001767  d :     0.040694
      dxz     :     0.006024
      dyz     :     0.011500
      dx2y2   :     0.017166
      dxy     :     0.004237
 33 H s       :     0.753303  s :     0.753303
      pz      :     0.003506  p :     0.019777
      px      :     0.006563
      py      :     0.009708
 34 H s       :     0.748909  s :     0.748909
      pz      :     0.011308  p :     0.020153
      px      :     0.005771
      py      :     0.003074
 35 H s       :     0.772536  s :     0.772536
      pz      :     0.008198  p :     0.018515
      px      :     0.007133
      py      :     0.003184
 36 C s       :     3.434451  s :     3.434451
      pz      :     1.053674  p :     3.131068
      px      :     0.965746
      py      :     1.111648
      dz2     :     0.004533  d :     0.028056
      dxz     :     0.008040
      dyz     :     0.004046
      dx2y2   :     0.007179
      dxy     :     0.004258
 37 C s       :     3.133462  s :     3.133462
      pz      :     0.844253  p :     2.479378
      px      :     0.779721
      py      :     0.855404
      dz2     :     0.011495  d :     0.055766
      dxz     :     0.012756
      dyz     :     0.006179
      dx2y2   :     0.012925
      dxy     :     0.012411
 38 N s       :     3.728591  s :     3.728591
      pz      :     1.201856  p :     3.615977
      px      :     1.239731
      py      :     1.174390
      dz2     :     0.010282  d :     0.039687
      dxz     :     0.006839
      dyz     :     0.004951
      dx2y2   :     0.007806
      dxy     :     0.009809
 39 H s       :     0.770427  s :     0.770427
      pz      :     0.010305  p :     0.018453
      px      :     0.003121
      py      :     0.005027
 40 H s       :     0.770767  s :     0.770767
      pz      :     0.005255  p :     0.018464
      px      :     0.009244
      py      :     0.003965
 41 H s       :     0.749435  s :     0.749435
      pz      :     0.003490  p :     0.020249
      px      :     0.003011
      py      :     0.013748
 42 C s       :     3.470836  s :     3.470836
      pz      :     0.963790  p :     3.128741
      px      :     1.040660
      py      :     1.124291
      dz2     :     0.005667  d :     0.028128
      dxz     :     0.008685
      dyz     :     0.005427
      dx2y2   :     0.005841
      dxy     :     0.002508
 43 C s       :     3.130467  s :     3.130467
      pz      :     0.783743  p :     2.440059
      px      :     0.795823
      py      :     0.860493
      dz2     :     0.017089  d :     0.056002
      dxz     :     0.012921
      dyz     :     0.013918
      dx2y2   :     0.006019
      dxy     :     0.006055
 44 N s       :     3.716396  s :     3.716396
      pz      :     1.281639  p :     3.639279
      px      :     1.196371
      py      :     1.161269
      dz2     :     0.014060  d :     0.042382
      dxz     :     0.004042
      dyz     :     0.012892
      dx2y2   :     0.004978
      dxy     :     0.006411
 45 H s       :     0.771086  s :     0.771086
      pz      :     0.003420  p :     0.018481
      px      :     0.011216
      py      :     0.003845
 46 H s       :     0.749700  s :     0.749700
      pz      :     0.005025  p :     0.019924
      px      :     0.003346
      py      :     0.011552
 47 H s       :     0.764105  s :     0.764105
      pz      :     0.007248  p :     0.018875
      px      :     0.004098
      py      :     0.007529
 48 C s       :     3.447704  s :     3.447704
      pz      :     1.062171  p :     3.127553
      px      :     1.114584
      py      :     0.950798
      dz2     :     0.005120  d :     0.028031
      dxz     :     0.003094
      dyz     :     0.008183
      dx2y2   :     0.005994
      dxy     :     0.005641
 49 C s       :     3.127837  s :     3.127837
      pz      :     0.842559  p :     2.474589
      px      :     0.864998
      py      :     0.767033
      dz2     :     0.012392  d :     0.056014
      dxz     :     0.005207
      dyz     :     0.013572
      dx2y2   :     0.010204
      dxy     :     0.014639
 50 N s       :     3.715927  s :     3.715927
      pz      :     1.210659  p :     3.637808
      px      :     1.160157
      py      :     1.266992
      dz2     :     0.010471  d :     0.040463
      dxz     :     0.005266
      dyz     :     0.007265
      dx2y2   :     0.005239
      dxy     :     0.012221
 51 H s       :     0.757000  s :     0.757000
      pz      :     0.004913  p :     0.019869
      px      :     0.008583
      py      :     0.006372
 52 H s       :     0.772034  s :     0.772034
      pz      :     0.003433  p :     0.018491
      px      :     0.009738
      py      :     0.005320
 53 H s       :     0.756408  s :     0.756408
      pz      :     0.012116  p :     0.019792
      px      :     0.004354
      py      :     0.003322
 54 C s       :     3.447564  s :     3.447564
      pz      :     0.978875  p :     3.133270
      px      :     1.033853
      py      :     1.120542
      dz2     :     0.006727  d :     0.028008
      dxz     :     0.009907
      dyz     :     0.002202
      dx2y2   :     0.003230
      dxy     :     0.005943
 55 C s       :     3.124673  s :     3.124673
      pz      :     0.822774  p :     2.492232
      px      :     0.803222
      py      :     0.866236
      dz2     :     0.017411  d :     0.055743
      dxz     :     0.012773
      dyz     :     0.011604
      dx2y2   :     0.005938
      dxy     :     0.008016
 56 N s       :     3.680086  s :     3.680086
      pz      :     1.292286  p :     3.663304
      px      :     1.216816
      py      :     1.154202
      dz2     :     0.014129  d :     0.041126
      dxz     :     0.003864
      dyz     :     0.011022
      dx2y2   :     0.004436
      dxy     :     0.007676
 57 H s       :     0.759645  s :     0.759645
      pz      :     0.003172  p :     0.019416
      px      :     0.006507
      py      :     0.009737
 58 H s       :     0.747927  s :     0.747927
      pz      :     0.010284  p :     0.019838
      px      :     0.006069
      py      :     0.003484
 59 H s       :     0.772066  s :     0.772066
      pz      :     0.003173  p :     0.018475
      px      :     0.006315
      py      :     0.008988
 60 C s       :     3.429240  s :     3.429240
      pz      :     1.091861  p :     3.150612
      px      :     1.031287
      py      :     1.027463
      dz2     :     0.005439  d :     0.027944
      dxz     :     0.003709
      dyz     :     0.005836
      dx2y2   :     0.004486
      dxy     :     0.008473
 61 C s       :     3.143014  s :     3.143014
      pz      :     0.833361  p :     2.494878
      px      :     0.818106
      py      :     0.843412
      dz2     :     0.007886  d :     0.056258
      dxz     :     0.009127
      dyz     :     0.009620
      dx2y2   :     0.018023
      dxy     :     0.011603
 62 N s       :     3.678167  s :     3.678167
      pz      :     1.168046  p :     3.671522
      px      :     1.240414
      py      :     1.263063
      dz2     :     0.007018  d :     0.041342
      dxz     :     0.006723
      dyz     :     0.007038
      dx2y2   :     0.015941
      dxy     :     0.004623
 63 H s       :     0.746220  s :     0.746220
      pz      :     0.003387  p :     0.020372
      px      :     0.012454
      py      :     0.004532
 64 H s       :     0.745458  s :     0.745458
      pz      :     0.006904  p :     0.019869
      px      :     0.003254
      py      :     0.009711
 65 H s       :     0.770340  s :     0.770340
      pz      :     0.010699  p :     0.018533
      px      :     0.003684
      py      :     0.004150
 66 C s       :     3.431373  s :     3.431373
      pz      :     1.080727  p :     3.131463
      px      :     1.042255
      py      :     1.008481
      dz2     :     0.004366  d :     0.028039
      dxz     :     0.006340
      dyz     :     0.005055
      dx2y2   :     0.003555
      dxy     :     0.008723
 67 C s       :     3.128532  s :     3.128532
      pz      :     0.842945  p :     2.510383
      px      :     0.829258
      py      :     0.838179
      dz2     :     0.008884  d :     0.055795
      dxz     :     0.008368
      dyz     :     0.010556
      dx2y2   :     0.016217
      dxy     :     0.011771
 68 N s       :     3.677985  s :     3.677985
      pz      :     1.177921  p :     3.663537
      px      :     1.221640
      py      :     1.263976
      dz2     :     0.008104  d :     0.039918
      dxz     :     0.005744
      dyz     :     0.006988
      dx2y2   :     0.013988
      dxy     :     0.005094
 69 H s       :     0.754187  s :     0.754187
      pz      :     0.007447  p :     0.019864
      px      :     0.008383
      py      :     0.004034
 70 H s       :     0.771723  s :     0.771723
      pz      :     0.009806  p :     0.018756
      px      :     0.005151
      py      :     0.003799
 71 H s       :     0.759301  s :     0.759301
      pz      :     0.003697  p :     0.019597
      px      :     0.005716
      py      :     0.010184
 72 C s       :     3.459280  s :     3.459280
      pz      :     1.119458  p :     3.128772
      px      :     0.982889
      py      :     1.026426
      dz2     :     0.005578  d :     0.028063
      dxz     :     0.003137
      dyz     :     0.005331
      dx2y2   :     0.003941
      dxy     :     0.010075
 73 C s       :     3.119056  s :     3.119056
      pz      :     0.865987  p :     2.461671
      px      :     0.793898
      py      :     0.801785
      dz2     :     0.004109  d :     0.055974
      dxz     :     0.011030
      dyz     :     0.008902
      dx2y2   :     0.019535
      dxy     :     0.012398
 74 N s       :     3.748248  s :     3.748248
      pz      :     1.157295  p :     3.607186
      px      :     1.241575
      py      :     1.208316
      dz2     :     0.002075  d :     0.040136
      dxz     :     0.009539
      dyz     :     0.007491
      dx2y2   :     0.017837
      dxy     :     0.003194
 75 H s       :     0.768182  s :     0.768182
      pz      :     0.004387  p :     0.018674
      px      :     0.009338
      py      :     0.004950
 76 H s       :     0.771424  s :     0.771424
      pz      :     0.010033  p :     0.018486
      px      :     0.003449
      py      :     0.005004
 77 H s       :     0.746548  s :     0.746548
      pz      :     0.008338  p :     0.020343
      px      :     0.003497
      py      :     0.008508
 78 C s       :     3.447746  s :     3.447746
      pz      :     1.108755  p :     3.138780
      px      :     1.101847
      py      :     0.928178
      dz2     :     0.006096  d :     0.028001
      dxz     :     0.002707
      dyz     :     0.005374
      dx2y2   :     0.008057
      dxy     :     0.005767
 79 C s       :     3.109712  s :     3.109712
      pz      :     0.856146  p :     2.497770
      px      :     0.853545
      py      :     0.788079
      dz2     :     0.005510  d :     0.055606
      dxz     :     0.002605
      dyz     :     0.016408
      dx2y2   :     0.015416
      dxy     :     0.015665
 80 N s       :     3.673573  s :     3.673573
      pz      :     1.157892  p :     3.673179
      px      :     1.180493
      py      :     1.334794
      dz2     :     0.002984  d :     0.040310
      dxz     :     0.003059
      dyz     :     0.013296
      dx2y2   :     0.009716
      dxy     :     0.011255
 81 H s       :     0.757865  s :     0.757865
      pz      :     0.003570  p :     0.019529
      px      :     0.012976
      py      :     0.002982
 82 H s       :     0.769553  s :     0.769553
      pz      :     0.010824  p :     0.018446
      px      :     0.003882
      py      :     0.003739
 83 H s       :     0.759734  s :     0.759734
      pz      :     0.007074  p :     0.019335
      px      :     0.005109
      py      :     0.007151
 84 C s       :     3.440063  s :     3.440063
      pz      :     1.086345  p :     3.130752
      px      :     1.098359
      py      :     0.946049
      dz2     :     0.003410  d :     0.028087
      dxz     :     0.005610
      dyz     :     0.007014
      dx2y2   :     0.006212
      dxy     :     0.005841
 85 C s       :     3.133084  s :     3.133084
      pz      :     0.829461  p :     2.467081
      px      :     0.860312
      py      :     0.777307
      dz2     :     0.008640  d :     0.055810
      dxz     :     0.004576
      dyz     :     0.014793
      dx2y2   :     0.012776
      dxy     :     0.015023
 86 N s       :     3.697382  s :     3.697382
      pz      :     1.175653  p :     3.655896
      px      :     1.172692
      py      :     1.307552
      dz2     :     0.007944  d :     0.041848
      dxz     :     0.004326
      dyz     :     0.008717
      dx2y2   :     0.008201
      dxy     :     0.012660
 87 H s       :     0.770944  s :     0.770944
      pz      :     0.004664  p :     0.018469
      px      :     0.008549
      py      :     0.005256
 88 H s       :     0.770352  s :     0.770352
      pz      :     0.008015  p :     0.018456
      px      :     0.007302
      py      :     0.003139
 89 H s       :     0.748335  s :     0.748335
      pz      :     0.008924  p :     0.020295
      px      :     0.005209
      py      :     0.006161
 90 C s       :     3.440911  s :     3.440911
      pz      :     1.111367  p :     3.128233
      px      :     1.061887
      py      :     0.954979
      dz2     :     0.005444  d :     0.028128
      dxz     :     0.002885
      dyz     :     0.006250
      dx2y2   :     0.006757
      dxy     :     0.006793
 91 C s       :     3.130155  s :     3.130155
      pz      :     0.863143  p :     2.474060
      px      :     0.830154
      py      :     0.780764
      dz2     :     0.006369  d :     0.055702
      dxz     :     0.004903
      dyz     :     0.014309
      dx2y2   :     0.016899
      dxy     :     0.013222
 92 N s       :     3.704322  s :     3.704322
      pz      :     1.176101  p :     3.641209
      px      :     1.187176
      py      :     1.277931
      dz2     :     0.003907  d :     0.041339
      dxz     :     0.004474
      dyz     :     0.011862
      dx2y2   :     0.014508
      dxy     :     0.006588
 93 H s       :     0.769971  s :     0.769971
      pz      :     0.006949  p :     0.018456
      px      :     0.003667
      py      :     0.007840
 94 H s       :     0.769622  s :     0.769622
      pz      :     0.003563  p :     0.018454
      px      :     0.011709
      py      :     0.003182
 95 H s       :     0.754080  s :     0.754080
      pz      :     0.011814  p :     0.019879
      px      :     0.004257
      py      :     0.003808
 96 C s       :     3.447686  s :     3.447686
      pz      :     0.919299  p :     3.136512
      px      :     1.099682
      py      :     1.117530
      dz2     :     0.009135  d :     0.027998
      dxz     :     0.006838
      dyz     :     0.004217
      dx2y2   :     0.003860
      dxy     :     0.003949
 97 C s       :     3.118416  s :     3.118416
      pz      :     0.778324  p :     2.483222
      px      :     0.840792
      py      :     0.864107
      dz2     :     0.017393  d :     0.056057
      dxz     :     0.016316
      dyz     :     0.016939
      dx2y2   :     0.002620
      dxy     :     0.002789
 98 N s       :     3.702155  s :     3.702155
      pz      :     1.314701  p :     3.649686
      px      :     1.178636
      py      :     1.156349
      dz2     :     0.009375  d :     0.040319
      dxz     :     0.009451
      dyz     :     0.016155
      dx2y2   :     0.002656
      dxy     :     0.002683
 99 H s       :     0.761643  s :     0.761643
      pz      :     0.006491  p :     0.019291
      px      :     0.007232
      py      :     0.005568
100 H s       :     0.771431  s :     0.771431
      pz      :     0.004079  p :     0.018484
      px      :     0.003749
      py      :     0.010656
101 H s       :     0.748795  s :     0.748795
      pz      :     0.002930  p :     0.020154
      px      :     0.011294
      py      :     0.005930
102 C s       :     3.465064  s :     3.465064
      pz      :     1.054947  p :     3.123806
      px      :     1.123814
      py      :     0.945045
      dz2     :     0.003683  d :     0.027975
      dxz     :     0.004432
      dyz     :     0.008497
      dx2y2   :     0.008093
      dxy     :     0.003270
103 C s       :     3.120385  s :     3.120385
      pz      :     0.824702  p :     2.480960
      px      :     0.867070
      py      :     0.789187
      dz2     :     0.010845  d :     0.056039
      dxz     :     0.004911
      dyz     :     0.014292
      dx2y2   :     0.011196
      dxy     :     0.014796
104 N s       :     3.725078  s :     3.725078
      pz      :     1.182905  p :     3.620622
      px      :     1.160366
      py      :     1.277350
      dz2     :     0.009805  d :     0.039711
      dxz     :     0.004372
      dyz     :     0.007059
      dx2y2   :     0.005731
      dxy     :     0.012745
105 H s       :     0.756000  s :     0.756000
      pz      :     0.006659  p :     0.019512
      px      :     0.004402
      py      :     0.008452
106 H s       :     0.752323  s :     0.752323
      pz      :     0.004019  p :     0.020107
      px      :     0.012725
      py      :     0.003364
107 H s       :     0.771407  s :     0.771407
      pz      :     0.009318  p :     0.018486
      px      :     0.006100
      py      :     0.003068
108 C s       :     3.432703  s :     3.432703
      pz      :     1.109554  p :     3.132291
      px      :     0.909287
      py      :     1.113451
      dz2     :     0.006404  d :     0.027973
      dxz     :     0.004707
      dyz     :     0.003061
      dx2y2   :     0.007772
      dxy     :     0.006029
109 C s       :     3.120263  s :     3.120263
      pz      :     0.866257  p :     2.504274
      px      :     0.772790
      py      :     0.865227
      dz2     :     0.006749  d :     0.056032
      dxz     :     0.017135
      dyz     :     0.001787
      dx2y2   :     0.012597
      dxy     :     0.017763
110 N s       :     3.724653  s :     3.724653
      pz      :     1.172341  p :     3.625074
      px      :     1.290460
      py      :     1.162273
      dz2     :     0.003779  d :     0.037350
      dxz     :     0.012375
      dyz     :     0.001797
      dx2y2   :     0.004829
      dxy     :     0.014570
111 H s       :     0.755001  s :     0.755001
      pz      :     0.005100  p :     0.019939
      px      :     0.004205
      py      :     0.010634
112 H s       :     0.772316  s :     0.772316
      pz      :     0.004132  p :     0.018503
      px      :     0.006251
      py      :     0.008120
113 H s       :     0.755978  s :     0.755978
      pz      :     0.013306  p :     0.019990
      px      :     0.002982
      py      :     0.003701
114 C s       :     3.451713  s :     3.451713
      pz      :     1.075201  p :     3.129228
      px      :     1.114548
      py      :     0.939479
      dz2     :     0.004865  d :     0.028062
      dxz     :     0.003492
      dyz     :     0.007677
      dx2y2   :     0.006736
      dxy     :     0.005292
115 C s       :     3.105111  s :     3.105111
      pz      :     0.843196  p :     2.498934
      px      :     0.868763
      py      :     0.786976
      dz2     :     0.011086  d :     0.055770
      dxz     :     0.004397
      dyz     :     0.014275
      dx2y2   :     0.010629
      dxy     :     0.015382
116 N s       :     3.726350  s :     3.726350
      pz      :     1.191578  p :     3.616813
      px      :     1.154567
      py      :     1.270667
      dz2     :     0.009156  d :     0.037117
      dxz     :     0.004093
      dyz     :     0.006441
      dx2y2   :     0.005495
      dxy     :     0.011932
117 H s       :     0.754832  s :     0.754832
      pz      :     0.011819  p :     0.019801
      px      :     0.004895
      py      :     0.003087
118 H s       :     0.772201  s :     0.772201
      pz      :     0.003511  p :     0.018477
      px      :     0.010132
      py      :     0.004834
119 H s       :     0.763949  s :     0.763949
      pz      :     0.005376  p :     0.018987
      px      :     0.007224
      py      :     0.006387


                     *******************************
                     * LOEWDIN POPULATION ANALYSIS *
                     *******************************

----------------------
LOEWDIN ATOMIC CHARGES
----------------------
   0 C :   -0.362176
   1 C :    0.165787
   2 N :   -0.432536
   3 H :    0.205587
   4 H :    0.219144
   5 H :    0.213822
   6 C :   -0.359416
   7 C :    0.168524
   8 N :   -0.432505
   9 H :    0.216193
  10 H :    0.208105
  11 H :    0.217813
  12 C :   -0.361614
  13 C :    0.161963
  14 N :   -0.432110
  15 H :    0.202081
  16 H :    0.209141
  17 H :    0.210872
  18 C :   -0.361948
  19 C :    0.164128
  20 N :   -0.422240
  21 H :    0.218138
  22 H :    0.205449
  23 H :    0.208990
  24 C :   -0.366493
  25 C :    0.172964
  26 N :   -0.448968
  27 H :    0.215754
  28 H :    0.200608
  29 H :    0.218471
  30 C :   -0.368807
  31 C :    0.154801
  32 N :   -0.428797
  33 H :    0.215355
  34 H :    0.217331
  35 H :    0.199410
  36 C :   -0.361315
  37 C :    0.169159
  38 N :   -0.430935
  39 H :    0.200791
  40 H :    0.200682
  41 H :    0.216641
  42 C :   -0.357394
  43 C :    0.174664
  44 N :   -0.446216
  45 H :    0.200514
  46 H :    0.217525
  47 H :    0.207365
  48 C :   -0.361578
  49 C :    0.169418
  50 N :   -0.432319
  51 H :    0.215835
  52 H :    0.199712
  53 H :    0.215128
  54 C :   -0.364369
  55 C :    0.159702
  56 N :   -0.424478
  57 H :    0.211429
  58 H :    0.214903
  59 H :    0.199618
  60 C :   -0.371277
  61 C :    0.170330
  62 N :   -0.446032
  63 H :    0.219718
  64 H :    0.215470
  65 H :    0.201196
  66 C :   -0.362081
  67 C :    0.163909
  68 N :   -0.424976
  69 H :    0.216323
  70 H :    0.202097
  71 H :    0.214222
  72 C :   -0.359640
  73 C :    0.170442
  74 N :   -0.435555
  75 H :    0.203923
  76 H :    0.200079
  77 H :    0.219570
  78 C :   -0.364947
  79 C :    0.152837
  80 N :   -0.414165
  81 H :    0.210059
  82 H :    0.200557
  83 H :    0.209316
  84 C :   -0.359407
  85 C :    0.167553
  86 N :   -0.433727
  87 H :    0.200338
  88 H :    0.200695
  89 H :    0.218522
  90 C :   -0.356992
  91 C :    0.169217
  92 N :   -0.428788
  93 H :    0.200719
  94 H :    0.200931
  95 H :    0.215623
  96 C :   -0.365011
  97 C :    0.164676
  98 N :   -0.431925
  99 H :    0.210185
 100 H :    0.200139
 101 H :    0.216462
 102 C :   -0.365623
 103 C :    0.169002
 104 N :   -0.433039
 105 H :    0.211443
 106 H :    0.217210
 107 H :    0.200400
 108 C :   -0.365691
 109 C :    0.161512
 110 N :   -0.422972
 111 H :    0.215133
 112 H :    0.199829
 113 H :    0.216203
 114 C :   -0.358203
 115 C :    0.160935
 116 N :   -0.416978
 117 H :    0.215489
 118 H :    0.199552
 119 H :    0.207908

-------------------------------
LOEWDIN REDUCED ORBITAL CHARGES
-------------------------------
  0 C s       :     2.945052  s :     2.945052
      pz      :     1.029068  p :     3.354841
      px      :     1.164457
      py      :     1.161316
      dz2     :     0.023395  d :     0.062283
      dxz     :     0.006981
      dyz     :     0.013564
      dx2y2   :     0.006815
      dxy     :     0.011527
  1 C s       :     2.876589  s :     2.876589
      pz      :     1.170046  p :     2.849186
      px      :     0.832232
      py      :     0.846908
      dz2     :     0.037156  d :     0.108439
      dxz     :     0.033460
      dyz     :     0.034592
      dx2y2   :     0.001278
      dxy     :     0.001953
  2 N s       :     3.411500  s :     3.411500
      pz      :     1.488488  p :     3.817844
      px      :     1.157477
      py      :     1.171878
      dz2     :     0.093046  d :     0.203191
      dxz     :     0.046978
      dyz     :     0.050086
      dx2y2   :     0.008692
      dxy     :     0.004390
  3 H s       :     0.748315  s :     0.748315
      pz      :     0.007877  p :     0.046097
      px      :     0.024623
      py      :     0.013598
  4 H s       :     0.729316  s :     0.729316
      pz      :     0.008225  p :     0.051540
      px      :     0.025497
      py      :     0.017818
  5 H s       :     0.737165  s :     0.737165
      pz      :     0.013805  p :     0.049013
      px      :     0.008284
      py      :     0.026924
  6 C s       :     2.944106  s :     2.944106
      pz      :     1.112461  p :     3.352904
      px      :     1.156193
      py      :     1.084250
      dz2     :     0.013386  d :     0.062406
      dxz     :     0.007336
      dyz     :     0.016640
      dx2y2   :     0.016044
      dxy     :     0.009000
  7 C s       :     2.875951  s :     2.875951
      pz      :     0.950572  p :     2.847183
      px      :     0.864215
      py      :     1.032396
      dz2     :     0.024024  d :     0.108342
      dxz     :     0.013864
      dyz     :     0.026125
      dx2y2   :     0.022603
      dxy     :     0.021726
  8 N s       :     3.411668  s :     3.411668
      pz      :     1.271076  p :     3.814126
      px      :     1.190929
      py      :     1.352122
      dz2     :     0.035075  d :     0.206710
      dxz     :     0.023070
      dyz     :     0.068335
      dx2y2   :     0.036174
      dxy     :     0.044057
  9 H s       :     0.734151  s :     0.734151
      pz      :     0.011216  p :     0.049655
      px      :     0.011071
      py      :     0.027368
 10 H s       :     0.745212  s :     0.745212
      pz      :     0.028212  p :     0.046683
      px      :     0.010710
      py      :     0.007761
 11 H s       :     0.732045  s :     0.732045
      pz      :     0.007489  p :     0.050142
      px      :     0.035378
      py      :     0.007275
 12 C s       :     2.944619  s :     2.944619
      pz      :     1.162131  p :     3.354451
      px      :     1.063597
      py      :     1.128723
      dz2     :     0.014835  d :     0.062544
      dxz     :     0.009748
      dyz     :     0.007077
      dx2y2   :     0.013325
      dxy     :     0.017558
 13 C s       :     2.878075  s :     2.878075
      pz      :     0.838333  p :     2.852390
      px      :     1.087173
      py      :     0.926885
      dz2     :     0.010017  d :     0.107571
      dxz     :     0.025265
      dyz     :     0.009362
      dx2y2   :     0.033653
      dxy     :     0.029274
 14 N s       :     3.412460  s :     3.412460
      pz      :     1.158487  p :     3.816038
      px      :     1.407917
      py      :     1.249635
      dz2     :     0.027297  d :     0.203612
      dxz     :     0.032544
      dyz     :     0.015207
      dx2y2   :     0.067757
      dxy     :     0.060807
 15 H s       :     0.752999  s :     0.752999
      pz      :     0.028723  p :     0.044920
      px      :     0.008366
      py      :     0.007831
 16 H s       :     0.743441  s :     0.743441
      pz      :     0.011495  p :     0.047418
      px      :     0.007176
      py      :     0.028747
 17 H s       :     0.740899  s :     0.740899
      pz      :     0.014405  p :     0.048228
      px      :     0.021304
      py      :     0.012519
 18 C s       :     2.945687  s :     2.945687
      pz      :     1.095165  p :     3.353998
      px      :     1.103136
      py      :     1.155698
      dz2     :     0.011339  d :     0.062262
      dxz     :     0.020438
      dyz     :     0.008562
      dx2y2   :     0.005858
      dxy     :     0.016065
 19 C s       :     2.877524  s :     2.877524
      pz      :     1.002087  p :     2.850708
      px      :     0.987774
      py      :     0.860848
      dz2     :     0.028223  d :     0.107640
      dxz     :     0.026590
      dyz     :     0.018370
      dx2y2   :     0.016608
      dxy     :     0.017850
 20 N s       :     3.412903  s :     3.412903
      pz      :     1.323015  p :     3.817123
      px      :     1.309478
      py      :     1.184630
      dz2     :     0.044129  d :     0.192215
      dxz     :     0.063981
      dyz     :     0.032232
      dx2y2   :     0.025163
      dxy     :     0.026710
 21 H s       :     0.730615  s :     0.730615
      pz      :     0.008383  p :     0.051248
      px      :     0.018804
      py      :     0.024061
 22 H s       :     0.748389  s :     0.748389
      pz      :     0.009736  p :     0.046162
      px      :     0.013649
      py      :     0.022776
 23 H s       :     0.743789  s :     0.743789
      pz      :     0.025112  p :     0.047222
      px      :     0.012572
      py      :     0.009538
 24 C s       :     2.946027  s :     2.946027
      pz      :     1.028853  p :     3.358257
      px      :     1.163505
      py      :     1.165898
      dz2     :     0.022558  d :     0.062209
      dxz     :     0.012347
      dyz     :     0.009111
      dx2y2   :     0.011151
      dxy     :     0.007043
 25 C s       :     2.875713  s :     2.875713
      pz      :     1.161524  p :     2.842642
      px      :     0.842558
      py      :     0.838560
      dz2     :     0.037025  d :     0.108681
      dxz     :     0.033712
      dyz     :     0.033601
      dx2y2   :     0.002492
      dxy     :     0.001851
 26 N s       :     3.410988  s :     3.410988
      pz      :     1.480400  p :     3.820480
      px      :     1.170105
      py      :     1.169975
      dz2     :     0.079949  d :     0.217499
      dxz     :     0.063869
      dyz     :     0.059793
      dx2y2   :     0.007796
      dxy     :     0.006092
 27 H s       :     0.734051  s :     0.734051
      pz      :     0.007522  p :     0.050195
      px      :     0.030894
      py      :     0.011778
 28 H s       :     0.754124  s :     0.754124
      pz      :     0.013571  p :     0.045269
      px      :     0.018926
      py      :     0.012772
 29 H s       :     0.730418  s :     0.730418
      pz      :     0.007542  p :     0.051111
      px      :     0.008124
      py      :     0.035445
 30 C s       :     2.947635  s :     2.947635
      pz      :     1.168846  p :     3.359167
      px      :     1.119441
      py      :     1.070880
      dz2     :     0.013134  d :     0.062005
      dxz     :     0.014602
      dyz     :     0.003866
      dx2y2   :     0.008881
      dxy     :     0.021521
 31 C s       :     2.880027  s :     2.880027
      pz      :     0.837861  p :     2.857003
      px      :     0.955072
      py      :     1.064069
      dz2     :     0.009649  d :     0.108169
      dxz     :     0.013139
      dyz     :     0.022206
      dx2y2   :     0.034320
      dxy     :     0.028855
 32 N s       :     3.414490  s :     3.414490
      pz      :     1.158221  p :     3.820474
      px      :     1.276032
      py      :     1.386221
      dz2     :     0.025844  d :     0.193833
      dxz     :     0.018284
      dyz     :     0.029814
      dx2y2   :     0.055435
      dxy     :     0.064457
 33 H s       :     0.734415  s :     0.734415
      pz      :     0.008153  p :     0.050230
      px      :     0.017355
      py      :     0.024722
 34 H s       :     0.731405  s :     0.731405
      pz      :     0.030024  p :     0.051265
      px      :     0.014150
      py      :     0.007091
 35 H s       :     0.755393  s :     0.755393
      pz      :     0.020816  p :     0.045197
      px      :     0.017218
      py      :     0.007163
 36 C s       :     2.947006  s :     2.947006
      pz      :     1.123164  p :     3.351953
      px      :     1.067703
      py      :     1.161086
      dz2     :     0.010743  d :     0.062357
      dxz     :     0.017483
      dyz     :     0.008846
      dx2y2   :     0.017162
      dxy     :     0.008123
 37 C s       :     2.876385  s :     2.876385
      pz      :     0.922341  p :     2.847027
      px      :     1.058364
      py      :     0.866321
      dz2     :     0.020370  d :     0.107429
      dxz     :     0.026756
      dyz     :     0.011691
      dx2y2   :     0.024587
      dxy     :     0.024025
 38 N s       :     3.413165  s :     3.413165
      pz      :     1.246065  p :     3.817360
      px      :     1.377930
      py      :     1.193365
      dz2     :     0.029694  d :     0.200411
      dxz     :     0.062212
      dyz     :     0.019070
      dx2y2   :     0.041475
      dxy     :     0.047959
 39 H s       :     0.754236  s :     0.754236
      pz      :     0.025617  p :     0.044973
      px      :     0.006874
      py      :     0.012481
 40 H s       :     0.754351  s :     0.754351
      pz      :     0.013093  p :     0.044967
      px      :     0.022400
      py      :     0.009475
 41 H s       :     0.731796  s :     0.731796
      pz      :     0.007935  p :     0.051563
      px      :     0.006854
      py      :     0.036774
 42 C s       :     2.945463  s :     2.945463
      pz      :     1.065244  p :     3.349432
      px      :     1.115465
      py      :     1.168723
      dz2     :     0.011676  d :     0.062499
      dxz     :     0.018001
      dyz     :     0.013691
      dx2y2   :     0.014573
      dxy     :     0.004558
 43 C s       :     2.875400  s :     2.875400
      pz      :     1.068485  p :     2.842015
      px      :     0.944265
      py      :     0.829265
      dz2     :     0.032495  d :     0.107921
      dxz     :     0.028611
      dyz     :     0.024571
      dx2y2   :     0.011268
      dxy     :     0.010975
 44 N s       :     3.413470  s :     3.413470
      pz      :     1.392419  p :     3.820816
      px      :     1.269423
      py      :     1.158974
      dz2     :     0.058603  d :     0.211930
      dxz     :     0.063658
      dyz     :     0.039607
      dx2y2   :     0.028188
      dxy     :     0.021874
 45 H s       :     0.754414  s :     0.754414
      pz      :     0.008155  p :     0.045072
      px      :     0.027886
      py      :     0.009031
 46 H s       :     0.731612  s :     0.731612
      pz      :     0.011933  p :     0.050864
      px      :     0.007697
      py      :     0.031234
 47 H s       :     0.746129  s :     0.746129
      pz      :     0.017229  p :     0.046506
      px      :     0.009872
      py      :     0.019405
 48 C s       :     2.946072  s :     2.946072
      pz      :     1.130156  p :     3.353254
      px      :     1.161727
      py      :     1.061370
      dz2     :     0.012703  d :     0.062252
      dxz     :     0.006422
      dyz     :     0.016932
      dx2y2   :     0.012086
      dxy     :     0.014109
 49 C s       :     2.876742  s :     2.876742
      pz      :     0.928164  p :     2.845868
      px      :     0.833292
      py      :     1.084411
      dz2     :     0.021958  d :     0.107972
      dxz     :     0.009351
      dyz     :     0.029192
      dx2y2   :     0.021510
      dxy     :     0.025961
 50 N s       :     3.413384  s :     3.413384
      pz      :     1.254973  p :     3.819356
      px      :     1.159308
      py      :     1.405076
      dz2     :     0.030312  d :     0.199580
      dxz     :     0.016070
      dyz     :     0.066544
      dx2y2   :     0.047851
      dxy     :     0.038802
 51 H s       :     0.733766  s :     0.733766
      pz      :     0.012585  p :     0.050399
      px      :     0.022306
      py      :     0.015509
 52 H s       :     0.755164  s :     0.755164
      pz      :     0.007912  p :     0.045124
      px      :     0.024982
      py      :     0.012230
 53 H s       :     0.734824  s :     0.734824
      pz      :     0.031629  p :     0.050048
      px      :     0.010420
      py      :     0.007999
 54 C s       :     2.946115  s :     2.946115
      pz      :     1.077711  p :     3.356042
      px      :     1.113430
      py      :     1.164902
      dz2     :     0.015742  d :     0.062211
      dxz     :     0.021566
      dyz     :     0.003471
      dx2y2   :     0.006070
      dxy     :     0.015361
 55 C s       :     2.878006  s :     2.878006
      pz      :     1.054719  p :     2.854848
      px      :     0.966635
      py      :     0.833494
      dz2     :     0.032253  d :     0.107444
      dxz     :     0.028727
      dyz     :     0.020774
      dx2y2   :     0.011675
      dxy     :     0.014015
 56 N s       :     3.414222  s :     3.414222
      pz      :     1.376870  p :     3.817998
      px      :     1.288422
      py      :     1.152706
      dz2     :     0.050618  d :     0.192258
      dxz     :     0.064632
      dyz     :     0.028239
      dx2y2   :     0.020654
      dxy     :     0.028115
 57 H s       :     0.740075  s :     0.740075
      pz      :     0.007259  p :     0.048497
      px      :     0.015922
      py      :     0.025316
 58 H s       :     0.735030  s :     0.735030
      pz      :     0.026143  p :     0.050067
      px      :     0.015857
      py      :     0.008067
 59 H s       :     0.755366  s :     0.755366
      pz      :     0.007208  p :     0.045016
      px      :     0.015037
      py      :     0.022771
 60 C s       :     2.946041  s :     2.946041
      pz      :     1.147774  p :     3.363063
      px      :     1.109023
      py      :     1.106266
      dz2     :     0.012952  d :     0.062174
      dxz     :     0.006976
      dyz     :     0.013908
      dx2y2   :     0.010472
      dxy     :     0.017865
 61 C s       :     2.876714  s :     2.876714
      pz      :     0.868212  p :     2.844421
      px      :     0.988273
      py      :     0.987935
      dz2     :     0.014892  d :     0.108535
      dxz     :     0.017740
      dyz     :     0.018149
      dx2y2   :     0.032144
      dxy     :     0.025610
 62 N s       :     3.412819  s :     3.412819
      pz      :     1.194670  p :     3.826523
      px      :     1.315905
      py      :     1.315947
      dz2     :     0.035237  d :     0.206691
      dxz     :     0.033670
      dyz     :     0.033294
      dx2y2   :     0.045873
      dxy     :     0.058616
 63 H s       :     0.728233  s :     0.728233
      pz      :     0.007805  p :     0.052049
      px      :     0.032418
      py      :     0.011825
 64 H s       :     0.734521  s :     0.734521
      pz      :     0.017821  p :     0.050009
      px      :     0.007616
      py      :     0.024571
 65 H s       :     0.753653  s :     0.753653
      pz      :     0.026879  p :     0.045150
      px      :     0.008865
      py      :     0.009406
 66 C s       :     2.946035  s :     2.946035
      pz      :     1.143706  p :     3.353656
      px      :     1.119086
      py      :     1.090864
      dz2     :     0.009667  d :     0.062390
      dxz     :     0.015408
      dyz     :     0.010569
      dx2y2   :     0.007278
      dxy     :     0.019468
 67 C s       :     2.878075  s :     2.878075
      pz      :     0.886924  p :     2.850349
      px      :     0.950146
      py      :     1.013279
      dz2     :     0.016395  d :     0.107666
      dxz     :     0.016155
      dyz     :     0.020868
      dx2y2   :     0.029127
      dxy     :     0.025122
 68 N s       :     3.414355  s :     3.414355
      pz      :     1.208560  p :     3.820871
      px      :     1.275051
      py      :     1.337260
      dz2     :     0.031816  d :     0.189751
      dxz     :     0.033554
      dyz     :     0.035894
      dx2y2   :     0.037931
      dxy     :     0.050556
 69 H s       :     0.733619  s :     0.733619
      pz      :     0.019615  p :     0.050057
      px      :     0.021185
      py      :     0.009257
 70 H s       :     0.752071  s :     0.752071
      pz      :     0.024563  p :     0.045832
      px      :     0.011941
      py      :     0.009329
 71 H s       :     0.736714  s :     0.736714
      pz      :     0.008460  p :     0.049064
      px      :     0.014973
      py      :     0.025632
 72 C s       :     2.946339  s :     2.946339
      pz      :     1.164685  p :     3.350923
      px      :     1.079109
      py      :     1.107129
      dz2     :     0.012340  d :     0.062378
      dxz     :     0.006337
      dyz     :     0.013510
      dx2y2   :     0.008465
      dxy     :     0.021726
 73 C s       :     2.875735  s :     2.875735
      pz      :     0.832571  p :     2.845953
      px      :     1.032556
      py      :     0.980826
      dz2     :     0.009396  d :     0.107871
      dxz     :     0.019692
      dyz     :     0.015666
      dx2y2   :     0.034833
      dxy     :     0.028285
 74 N s       :     3.412963  s :     3.412963
      pz      :     1.158366  p :     3.817312
      px      :     1.354579
      py      :     1.304367
      dz2     :     0.029994  d :     0.205279
      dxz     :     0.026630
      dyz     :     0.022798
      dx2y2   :     0.058759
      dxy     :     0.067099
 75 H s       :     0.750405  s :     0.750405
      pz      :     0.010283  p :     0.045671
      px      :     0.022793
      py      :     0.012595
 76 H s       :     0.754860  s :     0.754860
      pz      :     0.025797  p :     0.045061
      px      :     0.007622
      py      :     0.011642
 77 H s       :     0.728145  s :     0.728145
      pz      :     0.021949  p :     0.052284
      px      :     0.008489
      py      :     0.021846
 78 C s       :     2.947018  s :     2.947018
      pz      :     1.158630  p :     3.355652
      px      :     1.154404
      py      :     1.042618
      dz2     :     0.014349  d :     0.062277
      dxz     :     0.005334
      dyz     :     0.012500
      dx2y2   :     0.018275
      dxy     :     0.011820
 79 C s       :     2.879154  s :     2.879154
      pz      :     0.848740  p :     2.861001
      px      :     0.878975
      py      :     1.133286
      dz2     :     0.011327  d :     0.107008
      dxz     :     0.004868
      dyz     :     0.029763
      dx2y2   :     0.030422
      dxy     :     0.030628
 80 N s       :     3.416902  s :     3.416902
      pz      :     1.165214  p :     3.818921
      px      :     1.197319
      py      :     1.456388
      dz2     :     0.022946  d :     0.178343
      dxz     :     0.010503
      dyz     :     0.041188
      dx2y2   :     0.052875
      dxy     :     0.050831
 81 H s       :     0.741192  s :     0.741192
      pz      :     0.008267  p :     0.048749
      px      :     0.033787
      py      :     0.006695
 82 H s       :     0.754479  s :     0.754479
      pz      :     0.027501  p :     0.044964
      px      :     0.009208
      py      :     0.008256
 83 H s       :     0.742404  s :     0.742404
      pz      :     0.018143  p :     0.048280
      px      :     0.012817
      py      :     0.017320
 84 C s       :     2.946893  s :     2.946893
      pz      :     1.145297  p :     3.350157
      px      :     1.150960
      py      :     1.053900
      dz2     :     0.006534  d :     0.062358
      dxz     :     0.014282
      dyz     :     0.015551
      dx2y2   :     0.012788
      dxy     :     0.013202
 85 C s       :     2.876632  s :     2.876632
      pz      :     0.885429  p :     2.848338
      px      :     0.858387
      py      :     1.104523
      dz2     :     0.016133  d :     0.107476
      dxz     :     0.008248
      dyz     :     0.029305
      dx2y2   :     0.025778
      dxy     :     0.028012
 86 N s       :     3.414778  s :     3.414778
      pz      :     1.210342  p :     3.820214
      px      :     1.181572
      py      :     1.428300
      dz2     :     0.028372  d :     0.198735
      dxz     :     0.021602
      dyz     :     0.052985
      dx2y2   :     0.048038
      dxy     :     0.047738
 87 H s       :     0.754616  s :     0.754616
      pz      :     0.010943  p :     0.045047
      px      :     0.022008
      py      :     0.012096
 88 H s       :     0.754271  s :     0.754271
      pz      :     0.019813  p :     0.045034
      px      :     0.017950
      py      :     0.007270
 89 H s       :     0.729000  s :     0.729000
      pz      :     0.024369  p :     0.052478
      px      :     0.012891
      py      :     0.015218
 90 C s       :     2.946648  s :     2.946648
      pz      :     1.158439  p :     3.347876
      px      :     1.129218
      py      :     1.060219
      dz2     :     0.012578  d :     0.062467
      dxz     :     0.005415
      dyz     :     0.014819
      dx2y2   :     0.015981
      dxy     :     0.013673
 91 C s       :     2.876534  s :     2.876534
      pz      :     0.855499  p :     2.847078
      px      :     0.910638
      py      :     1.080940
      dz2     :     0.012616  d :     0.107171
      dxz     :     0.009222
      dyz     :     0.026450
      dx2y2   :     0.031239
      dxy     :     0.027645
 92 N s       :     3.413058  s :     3.413058
      pz      :     1.180366  p :     3.815341
      px      :     1.232044
      py      :     1.402931
      dz2     :     0.025067  d :     0.200389
      dxz     :     0.015760
      dyz     :     0.043591
      dx2y2   :     0.058061
      dxy     :     0.057909
 93 H s       :     0.754283  s :     0.754283
      pz      :     0.017731  p :     0.044998
      px      :     0.008544
      py      :     0.018723
 94 H s       :     0.754077  s :     0.754077
      pz      :     0.008229  p :     0.044992
      px      :     0.029434
      py      :     0.007329
 95 H s       :     0.733545  s :     0.733545
      pz      :     0.031700  p :     0.050833
      px      :     0.010456
      py      :     0.008676
 96 C s       :     2.946441  s :     2.946441
      pz      :     1.037981  p :     3.356339
      px      :     1.154350
      py      :     1.164008
      dz2     :     0.019385  d :     0.062231
      dxz     :     0.014818
      dyz     :     0.009578
      dx2y2   :     0.009051
      dxy     :     0.009398
 97 C s       :     2.877174  s :     2.877174
      pz      :     1.137359  p :     2.850110
      px      :     0.881415
      py      :     0.831336
      dz2     :     0.035961  d :     0.108040
      dxz     :     0.032303
      dyz     :     0.030069
      dx2y2   :     0.004798
      dxy     :     0.004909
 98 N s       :     3.413412  s :     3.413412
      pz      :     1.457057  p :     3.820572
      px      :     1.207899
      py      :     1.155615
      dz2     :     0.073896  d :     0.197941
      dxz     :     0.054881
      dyz     :     0.049924
      dx2y2   :     0.010622
      dxy     :     0.008619
 99 H s       :     0.741565  s :     0.741565
      pz      :     0.015522  p :     0.048250
      px      :     0.019001
      py      :     0.013727
100 H s       :     0.754782  s :     0.754782
      pz      :     0.009042  p :     0.045080
      px      :     0.008712
      py      :     0.027326
101 H s       :     0.732176  s :     0.732176
      pz      :     0.006607  p :     0.051361
      px      :     0.029793
      py      :     0.014961
102 C s       :     2.946329  s :     2.946329
      pz      :     1.131289  p :     3.357136
      px      :     1.170147
      py      :     1.055699
      dz2     :     0.007951  d :     0.062158
      dxz     :     0.010745
      dyz     :     0.018692
      dx2y2   :     0.018245
      dxy     :     0.006525
103 C s       :     2.876632  s :     2.876632
      pz      :     0.913310  p :     2.846380
      px      :     0.833735
      py      :     1.099336
      dz2     :     0.019446  d :     0.107986
      dxz     :     0.008750
      dyz     :     0.029868
      dx2y2   :     0.023284
      dxy     :     0.026639
104 N s       :     3.413023  s :     3.413023
      pz      :     1.236753  p :     3.819014
      px      :     1.162299
      py      :     1.419962
      dz2     :     0.033876  d :     0.201002
      dxz     :     0.016421
      dyz     :     0.061816
      dx2y2   :     0.048798
      dxy     :     0.040092
105 H s       :     0.739605  s :     0.739605
      pz      :     0.017268  p :     0.048952
      px      :     0.010813
      py      :     0.020872
106 H s       :     0.731427  s :     0.731427
      pz      :     0.009376  p :     0.051363
      px      :     0.034370
      py      :     0.007617
107 H s       :     0.754510  s :     0.754510
      pz      :     0.023020  p :     0.045090
      px      :     0.015190
      py      :     0.006880
108 C s       :     2.946842  s :     2.946842
      pz      :     1.158968  p :     3.356682
      px      :     1.035957
      py      :     1.161757
      dz2     :     0.015645  d :     0.062168
      dxz     :     0.009320
      dyz     :     0.006691
      dx2y2   :     0.016131
      dxy     :     0.014380
109 C s       :     2.877200  s :     2.877200
      pz      :     0.857176  p :     2.853283
      px      :     1.150113
      py      :     0.845994
      dz2     :     0.013229  d :     0.108005
      dxz     :     0.032012
      dyz     :     0.003291
      dx2y2   :     0.027164
      dxy     :     0.032309
110 N s       :     3.414194  s :     3.414194
      pz      :     1.182193  p :     3.818147
      px      :     1.467391
      py      :     1.168562
      dz2     :     0.025789  d :     0.190631
      dxz     :     0.046505
      dyz     :     0.005980
      dx2y2   :     0.058895
      dxy     :     0.053461
111 H s       :     0.734523  s :     0.734523
      pz      :     0.013003  p :     0.050344
      px      :     0.009544
      py      :     0.027797
112 H s       :     0.755040  s :     0.755040
      pz      :     0.009934  p :     0.045131
      px      :     0.014466
      py      :     0.020731
113 H s       :     0.732991  s :     0.732991
      pz      :     0.035619  p :     0.050806
      px      :     0.006589
      py      :     0.008599
114 C s       :     2.946166  s :     2.946166
      pz      :     1.137767  p :     3.349628
      px      :     1.160659
      py      :     1.051203
      dz2     :     0.011705  d :     0.062408
      dxz     :     0.007822
      dyz     :     0.016019
      dx2y2   :     0.013924
      dxy     :     0.012939
115 C s       :     2.876824  s :     2.876824
      pz      :     0.914500  p :     2.854868
      px      :     0.835946
      py      :     1.104422
      dz2     :     0.019743  d :     0.107373
      dxz     :     0.007828
      dyz     :     0.030054
      dx2y2   :     0.022597
      dxy     :     0.027151
116 N s       :     3.413644  s :     3.413644
      pz      :     1.236698  p :     3.813729
      px      :     1.155325
      py      :     1.421706
      dz2     :     0.028970  d :     0.189605
      dxz     :     0.011399
      dyz     :     0.058917
      dx2y2   :     0.057043
      dxy     :     0.033275
117 H s       :     0.734364  s :     0.734364
      pz      :     0.031049  p :     0.050147
      px      :     0.011890
      py      :     0.007208
118 H s       :     0.755425  s :     0.755425
      pz      :     0.008057  p :     0.045024
      px      :     0.026010
      py      :     0.010957
119 H s       :     0.745226  s :     0.745226
      pz      :     0.013796  p :     0.046866
      px      :     0.017908
      py      :     0.015163


                      *****************************
                      * MAYER POPULATION ANALYSIS *
                      *****************************

  NA   - Mulliken gross atomic population
  ZA   - Total nuclear charge
  QA   - Mulliken gross atomic charge
  VA   - Mayer's total valence
  BVA  - Mayer's bonded valence
  FA   - Mayer's free valence

  ATOM       NA         ZA         QA         VA         BVA        FA
  0 C      6.6341     6.0000    -0.6341     3.7827     3.7827     0.0000
  1 C      5.6437     6.0000     0.3563     3.6495     3.6495     0.0000
  2 N      7.3933     7.0000    -0.3933     2.8681     2.8681     0.0000
  3 H      0.7854     1.0000     0.2146     0.9405     0.9405     0.0000
  4 H      0.7741     1.0000     0.2259     0.9406     0.9406     0.0000
  5 H      0.7717     1.0000     0.2283     0.9384     0.9384     0.0000
  6 C      6.6312     6.0000    -0.6312     3.7851     3.7851    -0.0000
  7 C      5.6286     6.0000     0.3714     3.5801     3.5801    -0.0000
  8 N      7.4013     7.0000    -0.4013     2.7973     2.7973    -0.0000
  9 H      0.7769     1.0000     0.2231     0.9416     0.9416     0.0000
 10 H      0.7898     1.0000     0.2102     0.9431     0.9431    -0.0000
 11 H      0.7723     1.0000     0.2277     0.9395     0.9395     0.0000
 12 C      6.6203     6.0000    -0.6203     3.7934     3.7934    -0.0000
 13 C      5.6190     6.0000     0.3810     3.6358     3.6358    -0.0000
 14 N      7.4097     7.0000    -0.4097     2.8375     2.8375    -0.0000
 15 H      0.7869     1.0000     0.2131     0.9409     0.9409     0.0000
 16 H      0.7748     1.0000     0.2252     0.9372     0.9372     0.0000
 17 H      0.7737     1.0000     0.2263     0.9368     0.9368     0.0000
 18 C      6.5830     6.0000    -0.5830     3.8248     3.8248     0.0000
 19 C      5.6870     6.0000     0.3130     3.7377     3.7377    -0.0000
 20 N      7.3888     7.0000    -0.3888     2.8727     2.8727     0.0000
 21 H      0.7758     1.0000     0.2242     0.9415     0.9415     0.0000
 22 H      0.7866     1.0000     0.2134     0.9432     0.9432     0.0000
 23 H      0.7846     1.0000     0.2154     0.9433     0.9433     0.0000
 24 C      6.6452     6.0000    -0.6452     3.7514     3.7514    -0.0000
 25 C      5.6211     6.0000     0.3789     3.5688     3.5688     0.0000
 26 N      7.4055     7.0000    -0.4055     2.8171     2.8171    -0.0000
 27 H      0.7673     1.0000     0.2327     0.9362     0.9362    -0.0000
 28 H      0.7873     1.0000     0.2127     0.9398     0.9398    -0.0000
 29 H      0.7685     1.0000     0.2315     0.9413     0.9413    -0.0000
 30 C      6.6077     6.0000    -0.6077     3.7752     3.7752    -0.0000
 31 C      5.6769     6.0000     0.3231     3.7171     3.7171    -0.0000
 32 N      7.3872     7.0000    -0.3872     2.8996     2.8996    -0.0000
 33 H      0.7731     1.0000     0.2269     0.9391     0.9391    -0.0000
 34 H      0.7691     1.0000     0.2309     0.9369     0.9369    -0.0000
 35 H      0.7911     1.0000     0.2089     0.9428     0.9428    -0.0000
 36 C      6.5936     6.0000    -0.5936     3.7865     3.7865     0.0000
 37 C      5.6686     6.0000     0.3314     3.6754     3.6754     0.0000
 38 N      7.3843     7.0000    -0.3843     2.8529     2.8529     0.0000
 39 H      0.7889     1.0000     0.2111     0.9412     0.9412     0.0000
 40 H      0.7892     1.0000     0.2108     0.9417     0.9417     0.0000
 41 H      0.7697     1.0000     0.2303     0.9367     0.9367     0.0000
 42 C      6.6277     6.0000    -0.6277     3.7617     3.7617    -0.0000
 43 C      5.6265     6.0000     0.3735     3.6294     3.6294    -0.0000
 44 N      7.3981     7.0000    -0.3981     2.8362     2.8362    -0.0000
 45 H      0.7896     1.0000     0.2104     0.9418     0.9418    -0.0000
 46 H      0.7696     1.0000     0.2304     0.9375     0.9375    -0.0000
 47 H      0.7830     1.0000     0.2170     0.9414     0.9414    -0.0000
 48 C      6.6033     6.0000    -0.6033     3.7883     3.7883    -0.0000
 49 C      5.6584     6.0000     0.3416     3.6733     3.6733    -0.0000
 50 N      7.3942     7.0000    -0.3942     2.8611     2.8611    -0.0000
 51 H      0.7769     1.0000     0.2231     0.9401     0.9401    -0.0000
 52 H      0.7905     1.0000     0.2095     0.9427     0.9427    -0.0000
 53 H      0.7762     1.0000     0.2238     0.9409     0.9409    -0.0000
 54 C      6.6088     6.0000    -0.6088     3.7731     3.7731     0.0000
 55 C      5.6726     6.0000     0.3274     3.7179     3.7179     0.0000
 56 N      7.3845     7.0000    -0.3845     2.9164     2.9164     0.0000
 57 H      0.7791     1.0000     0.2209     0.9429     0.9429     0.0000
 58 H      0.7678     1.0000     0.2322     0.9373     0.9373     0.0000
 59 H      0.7905     1.0000     0.2095     0.9421     0.9421     0.0000
 60 C      6.6078     6.0000    -0.6078     3.8105     3.8105     0.0000
 61 C      5.6942     6.0000     0.3058     3.7383     3.7383    -0.0000
 62 N      7.3910     7.0000    -0.3910     2.8893     2.8893    -0.0000
 63 H      0.7666     1.0000     0.2334     0.9373     0.9373     0.0000
 64 H      0.7653     1.0000     0.2347     0.9355     0.9355     0.0000
 65 H      0.7889     1.0000     0.2111     0.9391     0.9391     0.0000
 66 C      6.5909     6.0000    -0.5909     3.8155     3.8155     0.0000
 67 C      5.6947     6.0000     0.3053     3.7650     3.7650    -0.0000
 68 N      7.3814     7.0000    -0.3814     2.9114     2.9114     0.0000
 69 H      0.7741     1.0000     0.2259     0.9389     0.9389     0.0000
 70 H      0.7905     1.0000     0.2095     0.9413     0.9413     0.0000
 71 H      0.7789     1.0000     0.2211     0.9413     0.9413     0.0000
 72 C      6.6161     6.0000    -0.6161     3.7665     3.7665    -0.0000
 73 C      5.6367     6.0000     0.3633     3.6259     3.6259     0.0000
 74 N      7.3956     7.0000    -0.3956     2.8297     2.8297    -0.0000
 75 H      0.7869     1.0000     0.2131     0.9414     0.9414    -0.0000
 76 H      0.7899     1.0000     0.2101     0.9422     0.9422     0.0000
 77 H      0.7669     1.0000     0.2331     0.9361     0.9361    -0.0000
 78 C      6.6145     6.0000    -0.6145     3.7884     3.7884     0.0000
 79 C      5.6631     6.0000     0.3369     3.7576     3.7576    -0.0000
 80 N      7.3871     7.0000    -0.3871     2.9301     2.9301     0.0000
 81 H      0.7774     1.0000     0.2226     0.9397     0.9397     0.0000
 82 H      0.7880     1.0000     0.2120     0.9409     0.9409     0.0000
 83 H      0.7791     1.0000     0.2209     0.9401     0.9401     0.0000
 84 C      6.5989     6.0000    -0.5989     3.7825     3.7825    -0.0000
 85 C      5.6560     6.0000     0.3440     3.7042     3.7042    -0.0000
 86 N      7.3951     7.0000    -0.3951     2.8743     2.8743     0.0000
 87 H      0.7894     1.0000     0.2106     0.9417     0.9417    -0.0000
 88 H      0.7888     1.0000     0.2112     0.9414     0.9414    -0.0000
 89 H      0.7686     1.0000     0.2314     0.9367     0.9367     0.0000
 90 C      6.5973     6.0000    -0.5973     3.7836     3.7836     0.0000
 91 C      5.6599     6.0000     0.3401     3.6952     3.6952    -0.0000
 92 N      7.3869     7.0000    -0.3869     2.8770     2.8770     0.0000
 93 H      0.7884     1.0000     0.2116     0.9413     0.9413    -0.0000
 94 H      0.7881     1.0000     0.2119     0.9411     0.9411    -0.0000
 95 H      0.7740     1.0000     0.2260     0.9390     0.9390     0.0000
 96 C      6.6122     6.0000    -0.6122     3.7789     3.7789    -0.0000
 97 C      5.6577     6.0000     0.3423     3.7036     3.7036    -0.0000
 98 N      7.3922     7.0000    -0.3922     2.8900     2.8900     0.0000
 99 H      0.7809     1.0000     0.2191     0.9413     0.9413    -0.0000
100 H      0.7899     1.0000     0.2101     0.9421     0.9421    -0.0000
101 H      0.7689     1.0000     0.2311     0.9366     0.9366    -0.0000
102 C      6.6168     6.0000    -0.6168     3.7495     3.7495    -0.0000
103 C      5.6574     6.0000     0.3426     3.6427     3.6427     0.0000
104 N      7.3854     7.0000    -0.3854     2.8591     2.8591     0.0000
105 H      0.7755     1.0000     0.2245     0.9391     0.9391    -0.0000
106 H      0.7724     1.0000     0.2276     0.9403     0.9403    -0.0000
107 H      0.7899     1.0000     0.2101     0.9421     0.9421    -0.0000
108 C      6.5930     6.0000    -0.5930     3.7993     3.7993     0.0000
109 C      5.6806     6.0000     0.3194     3.7012     3.7012    -0.0000
110 N      7.3871     7.0000    -0.3871     2.8739     2.8739     0.0000
111 H      0.7749     1.0000     0.2251     0.9401     0.9401     0.0000
112 H      0.7908     1.0000     0.2092     0.9426     0.9426     0.0000
113 H      0.7760     1.0000     0.2240     0.9398     0.9398     0.0000
114 C      6.6090     6.0000    -0.6090     3.7665     3.7665    -0.0000
115 C      5.6598     6.0000     0.3402     3.6822     3.6822    -0.0000
116 N      7.3803     7.0000    -0.3803     2.8764     2.8764    -0.0000
117 H      0.7746     1.0000     0.2254     0.9398     0.9398    -0.0000
118 H      0.7907     1.0000     0.2093     0.9425     0.9425    -0.0000
119 H      0.7829     1.0000     0.2171     0.9413     0.9413    -0.0000

  Mayer bond orders larger than 0.100000
B(  0-C ,  1-C ) :   0.9504 B(  0-C ,  3-H ) :   0.9352 B(  0-C ,  4-H ) :   0.9170 
B(  0-C ,  5-H ) :   0.9263 B(  1-C ,  2-N ) :   2.7425 B(  6-C ,  7-C ) :   0.9482 
B(  6-C ,  9-H ) :   0.9240 B(  6-C , 10-H ) :   0.9328 B(  6-C , 11-H ) :   0.9224 
B(  7-C ,  8-N ) :   2.6689 B( 12-C , 13-C ) :   0.9510 B( 12-C , 15-H ) :   0.9437 
B( 12-C , 16-H ) :   0.9291 B( 12-C , 17-H ) :   0.9283 B( 13-C , 14-N ) :   2.7094 
B( 18-C , 19-C ) :   1.0066 B( 18-C , 21-H ) :   0.9157 B( 18-C , 22-H ) :   0.9301 
B( 18-C , 23-H ) :   0.9317 B( 19-C , 20-N ) :   2.7636 B( 24-C , 25-C ) :   0.9261 
B( 24-C , 27-H ) :   0.9236 B( 24-C , 28-H ) :   0.9392 B( 24-C , 29-H ) :   0.9300 
B( 25-C , 26-N ) :   2.6867 B( 30-C , 31-C ) :   0.9629 B( 30-C , 33-H ) :   0.9212 
B( 30-C , 34-H ) :   0.9202 B( 30-C , 35-H ) :   0.9429 B( 31-C , 32-N ) :   2.7932 
B( 36-C , 37-C ) :   0.9704 B( 36-C , 39-H ) :   0.9439 B( 36-C , 40-H ) :   0.9418 
B( 36-C , 41-H ) :   0.9204 B( 37-C , 38-N ) :   2.7447 B( 42-C , 43-C ) :   0.9504 
B( 42-C , 45-H ) :   0.9433 B( 42-C , 46-H ) :   0.9186 B( 42-C , 47-H ) :   0.9375 
B( 43-C , 44-N ) :   2.7188 B( 48-C , 49-C ) :   0.9686 B( 48-C , 51-H ) :   0.9211 
B( 48-C , 52-H ) :   0.9441 B( 48-C , 53-H ) :   0.9256 B( 49-C , 50-N ) :   2.7461 
B( 54-C , 55-C ) :   0.9470 B( 54-C , 57-H ) :   0.9365 B( 54-C , 58-H ) :   0.9284 
B( 54-C , 59-H ) :   0.9377 B( 55-C , 56-N ) :   2.8146 B( 60-C , 61-C ) :   0.9951 
B( 60-C , 63-H ) :   0.9169 B( 60-C , 64-H ) :   0.9250 B( 60-C , 65-H ) :   0.9315 
B( 61-C , 62-N ) :   2.7690 B( 66-C , 67-C ) :   0.9948 B( 66-C , 69-H ) :   0.9196 
B( 66-C , 70-H ) :   0.9366 B( 66-C , 71-H ) :   0.9203 B( 67-C , 68-N ) :   2.8048 
B( 72-C , 73-C ) :   0.9532 B( 72-C , 75-H ) :   0.9387 B( 72-C , 76-H ) :   0.9443 
B( 72-C , 77-H ) :   0.9160 B( 73-C , 74-N ) :   2.7139 B( 78-C , 79-C ) :   0.9623 
B( 78-C , 81-H ) :   0.9288 B( 78-C , 82-H ) :   0.9442 B( 78-C , 83-H ) :   0.9277 
B( 79-C , 80-N ) :   2.8425 B( 84-C , 85-C ) :   0.9737 B( 84-C , 87-H ) :   0.9424 
B( 84-C , 88-H ) :   0.9438 B( 84-C , 89-H ) :   0.9132 B( 85-C , 86-N ) :   2.7696 
B( 90-C , 91-C ) :   0.9671 B( 90-C , 93-H ) :   0.9432 B( 90-C , 94-H ) :   0.9440 
B( 90-C , 95-H ) :   0.9176 B( 91-C , 92-N ) :   2.7688 B( 96-C , 97-C ) :   0.9643 
B( 96-C , 99-H ) :   0.9268 B( 96-C ,100-H ) :   0.9446 B( 96-C ,101-H ) :   0.9217 
B( 97-C , 98-N ) :   2.7820 B(102-C ,103-C ) :   0.9377 B(102-C ,105-H ) :   0.9268 
B(102-C ,106-H ) :   0.9216 B(102-C ,107-H ) :   0.9463 B(103-C ,104-N ) :   2.7492 
B(108-C ,109-C ) :   0.9798 B(108-C ,111-H ) :   0.9246 B(108-C ,112-H ) :   0.9440 
B(108-C ,113-H ) :   0.9185 B(109-C ,110-N ) :   2.7646 B(114-C ,115-C ) :   0.9477 
B(114-C ,117-H ) :   0.9237 B(114-C ,118-H ) :   0.9437 B(114-C ,119-H ) :   0.9326 
B(115-C ,116-N ) :   2.7777 

-------
TIMINGS
-------

Total SCF time: 0 days 0 hours 5 min 52 sec 

Total time                  ....     352.798 sec
Sum of individual times     ....     339.179 sec  ( 96.1%)

Fock matrix formation       ....     294.801 sec  ( 83.6%)
  Split-RI-J                ....      59.006 sec  ( 20.0% of F)
  XC integration            ....     104.980 sec  ( 35.6% of F)
    Basis function eval.    ....      18.305 sec  ( 17.4% of XC)
    Density eval.           ....      38.136 sec  ( 36.3% of XC)
    XC-Functional eval.     ....      10.327 sec  (  9.8% of XC)
    XC-Potential eval.      ....      30.961 sec  ( 29.5% of XC)
Diagonalization             ....       4.649 sec  (  1.3%)
Density matrix formation    ....       0.587 sec  (  0.2%)
Population analysis         ....       0.736 sec  (  0.2%)
Initial guess               ....       4.723 sec  (  1.3%)
Orbital Transformation      ....       0.000 sec  (  0.0%)
Orbital Orthonormalization  ....       0.000 sec  (  0.0%)
DIIS solution               ....       3.218 sec  (  0.9%)
SOSCF solution              ....       2.991 sec  (  0.8%)
Grid generation             ....      27.474 sec  (  7.8%)

Maximum memory used throughout the entire SCF-calculation: 1421.3 MB


-------------------------------------------------------------------------------
                          DFT DISPERSION CORRECTION                            
                                                                               
                                 DFTD4 V2.5                                    
-------------------------------------------------------------------------------
The R2SCAN3C composite method is recognized
Using three-body term ABC
Active option DFTDOPT                   ...         5   

Starting D4
-------------------------   ----------------
Dispersion correction           -0.049114027
-------------------------   ----------------

------------------   -----------------
gCP correction             0.065263915
------------------   -----------------

-------------------------   --------------------
FINAL SINGLE POINT ENERGY     -2654.548360396652
-------------------------   --------------------


                            ***************************************
                            *     ORCA property calculations      *
                            ***************************************

                                    ---------------------
                                    Active property flags
                                    ---------------------
   (+) Dipole Moment


------------------------------------------------------------------------------
                       ORCA ELECTRIC PROPERTIES CALCULATION
------------------------------------------------------------------------------

Dipole Moment Calculation                       ... on
Quadrupole Moment Calculation                   ... off
Polarizability Calculation                      ... off
GBWName                                         ... ORCA.gbw
Electron density                                ... ORCA.scfp
The origin for moment calculation is the CENTER OF MASS  = ( 0.037944,  0.010985 -0.123052)

-------------
DIPOLE MOMENT
-------------
                                X             Y             Z
Electronic contribution:     -0.88287      -1.17503      -1.41277
Nuclear contribution   :      2.03853       2.23590       2.86967
                        -----------------------------------------
Total Dipole Moment    :      1.15566       1.06087       1.45691
                        -----------------------------------------
Magnitude (a.u.)       :      2.14093
Magnitude (Debye)      :      5.44180



--------------------
Rotational spectrum 
--------------------
 
Rotational constants in cm-1:     0.001201     0.000829     0.000705 
Rotational constants in MHz :    35.994976    24.867352    21.150051 

 Dipole components along the rotational axes: 
x,y,z [a.u.] :     1.339413     0.578305     1.566878 
x,y,z [Debye]:     3.404516     1.469933     3.982687 

 

Timings for individual modules:

Sum of individual times         ...      357.337 sec (=   5.956 min)
GTO integral calculation        ...        3.513 sec (=   0.059 min)   1.0 %
SCF iterations                  ...      353.824 sec (=   5.897 min)  99.0 %
                             ****ORCA TERMINATED NORMALLY****
TOTAL RUN TIME: 0 days 0 hours 6 minutes 0 seconds 566 msec
