120
 energy: -174.086582849062 gnorm: 0.000159031772 xtb: 6.6.0 (83090be673e2468c27fcd74d519548d8d51bd8df)
C            1.80545778020300       -2.40778675761890        1.20153233446297
C            1.82220927973870       -2.70382958791135       -0.19144327276082
N            1.83721559018815       -2.94518891016402       -1.31211110252318
H            0.88160237446804       -1.88537949244538        1.44853222161740
H            2.65964044052152       -1.77407657880863        1.44618466223389
H            1.87092579724849       -3.33587301866045        1.77063176684346
C           -1.85854598499718       -1.93094071068879       -1.10114394782930
C           -1.41846073233083       -0.85402241286577       -0.28001024935856
N           -1.06153812287432        0.01108202965233        0.38238247190081
H           -1.46729498946628       -2.87005806769182       -0.70860564822686
H           -1.49770995759543       -1.78026207052072       -2.11747560942784
H           -2.94850848246478       -1.96746215954303       -1.10287209403009
C            1.57464306756473        0.20045876192347        4.06693057841719
C            0.36399880061155       -0.53948880551699        3.93671765179332
N           -0.61088991937853       -1.13655585164795        3.84469259590035
H            1.84144759354375        0.27436082644622        5.12038517112164
H            1.44749397033759        1.20068656251376        3.65383338768633
H            2.37695988610662       -0.30111739849800        3.52621360236581
C            0.93139635425248        2.49310196042277       -0.44147256604427
C            1.87641704277316        2.09668330636394       -1.43377754605726
N            2.63464967411563        1.77718308295158       -2.23147634193335
H            0.24226084987767        1.66949349785045       -0.24901266383741
H            0.37425990925799        3.35819817828326       -0.80062323313668
H            1.45238326477156        2.75337834594930        0.47947896697956
C           -0.87818197322867       -4.33286343502649        3.07409875838478
C           -1.15164235269248       -4.56079458282611        1.69699251031972
N           -1.36680683757374       -4.74325517525482        0.58498034160166
H            0.10544557879241       -4.74014683655549        3.31257507578842
H           -1.64007064296356       -4.81857605325336        3.68163942055239
H           -0.88164700993282       -3.25994244400118        3.27533352197027
C            0.49551547975171       -2.83321273778940       -4.33353244137657
C           -0.32677011674537       -1.67412846033034       -4.44283366009273
N           -1.00613945442072       -0.75256769988383       -4.51457040383714
H           -0.14266074651136       -3.71869723304398       -4.36487193416781
H            1.03267414581331       -2.80507330325692       -3.38433114062244
H            1.20646627404258       -2.86176487217285       -5.15694479831559
C            6.38443235276808        0.30930529452609        0.80117740617638
C            5.23867764016665       -0.13887972389178        1.52226275237069
N            4.32002974625651       -0.50386006759263        2.10274651998945
H            6.40332952987803       -0.16846283430943       -0.17760616547248
H            7.28746506074175        0.05246428596656        1.35312054313262
H            6.33315188332649        1.39136605567966        0.67041944082802
C           -6.62811205527826       -2.28826340799016        0.80319830047996
C           -5.81993529964829       -2.31459660330861       -0.36855814694191
N           -5.16373049986335       -2.32690408332716       -1.30928163538785
H           -7.66753775062316       -2.47958816336365        0.54229192688130
H           -6.53832257748916       -1.30384802496456        1.26722392419414
H           -6.27671644807776       -3.04560706086495        1.50419188442980
C           -5.59753016602706        2.87060490787693        0.56504101150326
C           -5.71819833457564        1.66148173194058        1.30808144381981
N           -5.81063700108203        0.68865773725789        1.90861315212355
H           -4.83568590017951        3.49686120291274        1.03195548677685
H           -6.55143315293389        3.39492018916590        0.55462232038500
H           -5.29159181085688        2.63818954304529       -0.45635130703518
C           -3.41878973518677       -5.17282804299354       -2.03017450155162
C           -2.54993576080753       -5.16384969910199       -3.16211844646515
N           -1.84213524670052       -5.16219775633814       -4.06375681518611
H           -4.04579691522915       -4.28126399583618       -2.04022375817776
H           -2.82071747706683       -5.17508494032552       -1.11827607344885
H           -4.04770601688396       -6.06125700490634       -2.05608224261643
C           -1.14224112994188        2.51441643628280        2.65407371979005
C           -2.09338366237257        3.46232054804082        2.18098773011955
N           -2.86505394391327        4.22112323062310        1.80083116242956
H           -0.15023165825363        2.96685609071391        2.65818057807837
H           -1.14323894988395        1.64409473650345        1.99663950157573
H           -1.40739844342582        2.20636675035153        3.66431384692237
C            0.68126324930032       -5.98582398781249       -1.72464191729453
C            1.50271376246440       -7.01144035647753       -1.17101939703352
N            2.16459492851709       -7.82846984665759       -0.71409099592248
H           -0.09787684974605       -5.72464672450822       -1.00734934674285
H            0.22573239422612       -6.32442335311750       -2.65329957995200
H            1.28614728132443       -5.09853673309497       -1.91236924446740
C            3.91867957293891        5.16444334430948        2.65530783727741
C            2.84188603526560        4.23550295042734        2.73873403886254
N            1.97485824248576        3.48798699972790        2.80098958624285
H            4.81956040439578        4.64384245033813        2.33117893052023
H            4.08598910310643        5.62319279009538        3.62839965034840
H            3.66580861323372        5.93574512016167        1.92452267584017
C           -4.05356643884504       -1.36656403682353        4.09908664302915
C           -4.54526804953887       -2.68048719417148        3.83310496455562
N           -4.94840485326146       -3.73044707000856        3.61119563257894
H           -2.97179593402721       -1.34377352835473        3.96602182449539
H           -4.30024895137468       -1.08529352531121        5.12185082491353
H           -4.52038635628808       -0.66453223569195        3.40689258020295
C            3.96484382847086        3.07980198528745       -4.86465044725375
C            4.35861128534126        4.33451207653002       -4.31412476792346
N            4.67271389873228        5.34051392378257       -3.86215332775373
H            4.83657221812671        2.56196667564284       -5.26149132437218
H            3.23697907931501        3.23898475899175       -5.65886080484935
H            3.51156278190553        2.48099153659979       -4.07128545998067
C            3.47257905051143       -7.49565812918505        2.27101396698548
C            2.79746170162343       -6.29550016382129        2.64275632985729
N            2.25026931729654       -5.33220345660633        2.93705166795548
H            3.24324466718475       -8.28285550250278        2.98764561507173
H            4.54701924355475       -7.32006566954721        2.24883618053414
H            3.13154546662418       -7.79464490597922        1.27730442634189
C            2.26478955929520        7.16064393559454       -2.17552472479458
C            2.78122881607453        7.18092254035397       -0.84835147447717
N            3.21209883982873        7.19113995428672        0.21463127835637
H            2.97691979529603        6.64990974335152       -2.82561540418200
H            2.11299709124882        8.17966618332551       -2.52747842026941
H            1.31475066290628        6.62421056449788       -2.18589753152274
C           -4.13713154478439       -0.10057822225854       -3.70540934950609
C           -4.25793837397290        1.14478198125942       -3.02423203382161
N           -4.36315061423990        2.14228910576283       -2.46834318573511
H           -4.48018282226521       -0.90118236374201       -3.04931119413947
H           -3.09238848663833       -0.26824696355482       -3.97405729268851
H           -4.74396605918007       -0.08413908386993       -4.60933397568273
C           -3.04381394318231        5.01962979371365       -1.38940728050214
C           -1.69928467138858        5.29491821036372       -1.77214735125933
N           -0.61285536539284        5.51782123340394       -2.06437759522992
H           -3.38304086639244        4.10007153743185       -1.86748536532336
H           -3.68669882064573        5.84614892377899       -1.68698483218050
H           -3.08061718384578        4.89576167229052       -0.30570220903270
C            6.22627985705022        5.82614267995587       -0.94924891621774
C            6.32847073311241        4.57118810853633       -0.27908205303372
N            6.40998793169074        3.56802044351775        0.26944195804396
H            5.82999960491362        5.66829842510682       -1.95394138706169
H            7.20840231650028        6.29178888493526       -1.01143753235309
H            5.54371662191009        6.47378527317947       -0.39887885861811
