! r2SCAN-3c ENERGY TightSCF defgrid3 def2/J
%maxcore 8000
%PAL NPROCS 10 END
%CPCM SMD TRUE
      SMDSOLVENT "MeCN"
END
*xyzfile 4 1  xtbopt.xyz
